         174433628 function calls (172275310 primitive calls) in 701.974 seconds

   Ordered by: internal time

   ncalls  tottime  percall  cumtime  percall filename:lineno(function)
  1761246  219.585    0.000  219.585    0.000 {method 'union' of 'frozenset' objects}
  3060548   85.552    0.000   99.477    0.000 dictionary_jacobian.py:63(_apply)
248811/718   73.323    0.000  589.476    0.821 linear_block_gs.py:75(_single_iteration)
   847535   51.299    0.000   51.512    0.000 default_vector.py:408(_scale_forward)
   847535   48.322    0.000   48.463    0.000 default_vector.py:424(_scale_reverse)
  5392982   31.774    0.000   31.774    0.000 default_vector.py:353(set_val)
   1616/1   31.459    0.019   31.589   31.589 group.py:2031(_setup_global_connections)
248811/718   27.175    0.000  591.252    0.823 linear_runonce.py:21(solve)
   248811   12.148    0.000   12.208    0.000 solver.py:1101(_update_rhs_vec)
  1067842   11.759    0.000   25.315    0.000 default_transfer.py:247(_transfer)
    57600    6.296    0.000  115.597    0.002 {method 'solve' of 'petsc4py.PETSc.KSP' objects}
  6121096    5.659    0.000    9.608    0.000 system.py:2535(_matvec_context)
   280981    5.255    0.000    5.255    0.000 {built-in method numpy.core._multiarray_umath.c_einsum}
  2819636    5.057    0.000  114.553    0.000 explicitcomponent.py:364(_apply_linear)
589140/117828    4.549    0.000  133.827    0.001 group.py:3260(_apply_linear)
 14860600    3.813    0.000    3.813    0.000 vector.py:371(_abs_get_val)
       52    3.789    0.073    3.789    0.073 {method 'nonzero' of 'numpy.ndarray' objects}
  5431583    3.443    0.000    4.042    0.000 contextlib.py:104(__init__)
   319412    3.419    0.000    3.419    0.000 {method 'reduce' of 'numpy.ufunc' objects}
  1568351    2.737    0.000  102.993    0.000 group.py:2665(_transfer)
  5431583    2.593    0.000   18.380    0.000 contextlib.py:141(__exit__)
  1224984    2.541    0.000    2.914    0.000 default_vector.py:307(__imul__)
 10864898    2.520    0.000   39.578    0.000 {built-in method builtins.next}
  8925787    2.322    0.000    2.806    0.000 group.py:4363(_solver_subsystem_iter)
  5431583    2.291    0.000    6.334    0.000 contextlib.py:284(helper)
    86402    2.081    0.000    4.588    0.000 numeric.py:1468(cross)
   144849    1.732    0.000    1.732    0.000 {method 'copy' of 'numpy.ndarray' objects}
  5431583    1.694    0.000   25.485    0.000 contextlib.py:132(__enter__)
  2412301    1.593    0.000    1.593    0.000 {method 'dot' of 'numpy.ndarray' objects}
    47448    1.531    0.000    1.612    0.000 default_vector.py:188(_initialize_views)
    60228    1.374    0.000  102.661    0.002 petsc_ksp.py:265(mult)
    33600    1.321    0.000   10.279    0.000 eval_mtx.py:14(_compute_finite_vortex)
       25    1.286    0.051    5.086    0.203 pseudospectral_timeseries_output_comp.py:98(_add_output_configure)
   647120    1.280    0.000    1.444    0.000 default_vector.py:265(__iadd__)
  4570008    1.250    0.000    2.099    0.000 system.py:2474(_unscaled_context)
  5667211    1.182    0.000    2.820    0.000 default_vector.py:440(asarray)
    91522    1.106    0.000    5.921    0.000 vector_algebra.py:92(compute_norm)
  4856468    1.056    0.000    1.056    0.000 {method 'intersection' of 'frozenset' objects}
   949453    0.728    0.000    1.137    0.000 group.py:320(_get_matvec_scope)
  1778450    0.703    0.000  220.288    0.000 solver.py:1124(_vars_union)
   518440    0.675    0.000    0.964    0.000 numeric.py:1330(normalize_axis_tuple)
   115200    0.644    0.000    0.741    0.000 {method 'createWithArray' of 'petsc4py.PETSc.Vec' objects}
     6720    0.634    0.000   12.565    0.002 eval_mtx.py:304(compute)
  5488068    0.631    0.000    0.643    0.000 {built-in method builtins.getattr}
       38    0.631    0.017    0.665    0.018 system.py:3749(get_io_metadata)
   259212    0.630    0.000    1.902    0.000 numeric.py:1393(moveaxis)
4505724/4500825    0.599    0.000    0.752    0.000 {built-in method builtins.len}
   847535    0.583    0.000   52.095    0.000 default_vector.py:368(scale_to_norm)
  2190574    0.577    0.000    0.578    0.000 dictionary_jacobian.py:33(_iter_abs_keys)
   110511    0.558    0.000    0.859    0.000 _sputils.py:147(get_index_dtype)
   847535    0.509    0.000   48.972    0.000 default_vector.py:388(scale_to_phys)
  4737537    0.509    0.000    0.549    0.000 {built-in method builtins.isinstance}
   240912    0.489    0.000    6.899    0.000 implicitcomponent.py:219(_apply_linear)
   217527    0.457    0.000    0.561    0.000 numeric.py:136(ones)
   708383    0.456    0.000    0.456    0.000 options_dictionary.py:527(__getitem__)
  3378438    0.454    0.000    0.454    0.000 group.py:54(__iter__)
     1618    0.447    0.000    0.954    0.001 group.py:1605(_setup_var_data)
   222963    0.430    0.000    0.430    0.000 {method 'astype' of 'numpy.ndarray' objects}
   191890    0.419    0.000    0.419    0.000 fromnumeric.py:72(<dictcomp>)
   580904    0.417    0.000    2.178    0.000 explicitcomponent.py:437(_solve_linear)
  2372938    0.407    0.000    0.407    0.000 group.py:365(<genexpr>)
   303065    0.384    0.000    0.408    0.000 group.py:3242(_iter_call_apply_linear)
        1    0.373    0.373    1.780    1.780 group.py:786(get_relevant_vars)
    57600    0.344    0.000  118.857    0.002 petsc_ksp.py:328(solve)
  3376094    0.331    0.000    0.331    0.000 multiarray.py:892(bincount)
     1600    0.298    0.000    2.059    0.001 eval_mtx.py:29(_compute_finite_vortex_deriv1)
     1600    0.294    0.000    2.049    0.001 eval_mtx.py:52(_compute_finite_vortex_deriv2)
303783/718    0.286    0.000  591.255    0.823 group.py:3310(_solve_linear)
  1078412    0.283    0.000    0.422    0.000 general_utils.py:323(all_ancestors)
    48403    0.281    0.000    0.281    0.000 default_vector.py:548(get_slice_dict)
     7907    0.275    0.000    0.702    0.000 system.py:411(__init__)
     5610    0.272    0.000    0.272    0.000 {built-in method scipy.sparse._sparsetools.csr_sort_indices}
    69804    0.270    0.000   15.892    0.000 explicitcomponent.py:305(_solve_nonlinear)
   157623    0.266    0.000    0.389    0.000 options_dictionary.py:348(declare)
   581224    0.264    0.000    0.761    0.000 default_vector.py:342(set_vec)
   191890    0.252    0.000    3.881    0.000 fromnumeric.py:71(_wrapreduction)
     3040    0.240    0.000   20.501    0.007 nonlinear_block_gs.py:109(_single_iteration)
   106643    0.230    0.000    0.252    0.000 recording_iteration_stack.py:139(__init__)
   308081    0.221    0.000    0.469    0.000 group.py:982(all_connected_nodes)
        1    0.216    0.216    5.302    5.302 transcription_base.py:417(configure_timeseries_outputs)
   221048    0.208    0.000    0.208    0.000 getlimits.py:685(__init__)
   112697    0.207    0.000    0.207    0.000 default_vector.py:67(__setitem__)
    27096    0.195    0.000    0.590    0.000 _compressed.py:136(check_format)
    51408    0.194    0.000    0.196    0.000 system.py:2295(split_list)
     3200    0.192    0.000    0.192    0.000 {built-in method scipy.sparse.linalg._dsolve._superlu.gstrf}
    70124    0.191    0.000   15.774    0.000 explicitcomponent.py:262(_compute_wrapper)
    42999    0.188    0.000    0.212    0.000 numeric.py:67(zeros_like)
      320    0.185    0.001    0.945    0.003 eval_mtx.py:161(setup)
   284075    0.184    0.000    0.193    0.000 {built-in method builtins.sorted}
   839674    0.181    0.000    0.181    0.000 {method 'match' of 're.Pattern' objects}
    50880    0.178    0.000    2.232    0.000 vector_algebra.py:12(compute_dot)
   674135    0.177    0.000    0.904    0.000 fnmatch.py:64(fnmatchcase)
     7908    0.177    0.000    0.447    0.000 system.py:2283(_get_promotion_maps)
   718140    0.175    0.000    1.072    0.000 record_util.py:138(check_path)
    17755    0.171    0.000    0.171    0.000 {built-in method scipy.sparse._sparsetools.coo_tocsr}
     3200    0.166    0.000    0.457    0.000 geometry.py:117(compute)
   142103    0.165    0.000    3.931    0.000 fromnumeric.py:2177(sum)
   712774    0.163    0.000    0.207    0.000 reportviews.py:188(__getitem__)
   275600    0.162    0.000    0.162    0.000 {built-in method numpy.array}
   889237    0.152    0.000    0.152    0.000 vector.py:160(__len__)
    18696    0.151    0.000    0.482    0.000 component.py:1354(_declare_partials)
    92373    0.150    0.000    0.574    0.000 {method 'update' of 'set' objects}
    17080    0.150    0.000    0.425    0.000 _coo.py:266(_check)
   106643    0.145    0.000    0.343    0.000 recording_iteration_stack.py:164(__exit__)
  2007262    0.143    0.000    0.143    0.000 explicitcomponent.py:578(is_explicit)
  1405068    0.140    0.000    0.140    0.000 einsumfunc.py:1001(_einsum_dispatcher)
   1616/1    0.139    0.000    0.357    0.357 group.py:2477(_setup_connections)
    15819    0.136    0.000    0.150    0.000 <frozen os>:674(__getitem__)
   364215    0.133    0.000    0.133    0.000 {built-in method numpy.empty}
    68965    0.132    0.000    0.132    0.000 {built-in method numpy.arange}
    13440    0.130    0.000    1.464    0.000 eval_mtx.py:75(_compute_semi_infinite_vortex)
   1616/1    0.129    0.000    0.327    0.327 default_transfer.py:40(_setup_transfers)
   518440    0.128    0.000    0.188    0.000 numeric.py:1380(<listcomp>)
   375112    0.126    0.000    0.126    0.000 default_vector.py:43(__getitem__)
     3200    0.123    0.000    0.455    0.000 load_transfer.py:118(compute)
   1616/1    0.119    0.000    0.164    0.164 group.py:1956(_setup_var_sizes)
     3200    0.115    0.000    0.134    0.000 collocation_points.py:126(compute)
  1002775    0.115    0.000    0.115    0.000 {method 'join' of 'str' objects}
      160    0.110    0.001    0.841    0.005 vonmises_tube.py:105(compute_partials)
3264/1634    0.109    0.000    0.258    0.000 _parser.py:507(_parse)
  16656/1    0.107    0.000   22.425   22.425 solver.py:790(_gs_iter)
     3392    0.105    0.000    0.459    0.000 solver.py:316(<listcomp>)
   280981    0.105    0.000    5.360    0.000 einsumfunc.py:1009(einsum)
    34626    0.103    0.000    0.216    0.000 _compressed.py:1168(prune)
    60228    0.101    0.000    0.188    0.000 petsc_ksp.py:146(__call__)
742016/64611    0.099    0.000    0.099    0.000 system.py:2825(system_iter)
    46602    0.097    0.000    0.176    0.000 _sputils.py:295(check_shape)
    13424    0.096    0.000    1.578    0.000 _coo.py:331(tocsc)
   231702    0.095    0.000    0.115    0.000 coreviews.py:80(__getitem__)
   777970    0.094    0.000    0.094    0.000 {built-in method numpy.core._multiarray_umath.normalize_axis_index}
    18696    0.094    0.000    1.979    0.000 component.py:1014(declare_partials)
    62856    0.092    0.000    0.092    0.000 {method 'getArray' of 'petsc4py.PETSc.Vec' objects}
    20603    0.092    0.000    0.460    0.000 component.py:466(add_input)
17080/17030    0.091    0.000    0.905    0.000 _coo.py:127(__init__)
      320    0.090    0.000    4.571    0.014 eval_mtx.py:400(compute_partials)
   259372    0.089    0.000    0.089    0.000 {method 'transpose' of 'numpy.ndarray' objects}
27096/24992    0.089    0.000    1.128    0.000 _compressed.py:26(__init__)
      960    0.086    0.000    0.091    0.000 function_base.py:5172(delete)
     3200    0.086    0.000    0.127    0.000 wing_weight_loads.py:173(compute)
     3200    0.084    0.000    0.102    0.000 compute_transformation_matrix.py:58(compute)
    47442    0.084    0.000    0.361    0.000 default_vector.py:119(_extract_root_data)
    66882    0.082    0.000    3.926    0.000 vector_algebra.py:44(compute_cross)
     6400    0.080    0.000    0.341    0.000 get_vectors.py:85(compute)
    89987    0.079    0.000    0.104    0.000 system.py:4607(record_iteration)
   259212    0.078    0.000    0.078    0.000 numeric.py:1455(<listcomp>)
   231488    0.078    0.000    0.078    0.000 {method 'update' of 'dict' objects}
   138008    0.075    0.000    0.568    0.000 __init__.py:272(_compile)
     8924    0.075    0.000    0.257    0.000 component.py:634(add_output)
    29556    0.075    0.000    0.085    0.000 vector.py:581(set_var)
    47448    0.074    0.000    2.078    0.000 vector.py:98(__init__)
   115527    0.073    0.000    0.097    0.000 <frozen importlib._bootstrap>:1209(_handle_fromlist)
   106643    0.073    0.000    0.155    0.000 recording_iteration_stack.py:152(__enter__)
   246183    0.071    0.000    0.071    0.000 solver.py:1209(_set_matvec_scope)
    42459    0.070    0.000    0.070    0.000 {method 'flatten' of 'numpy.ndarray' objects}
     3200    0.068    0.000    0.078    0.000 mesh_point_forces.py:78(compute)
   162627    0.067    0.000    0.070    0.000 options_dictionary.py:247(_assert_valid)
    15907    0.064    0.000    0.103    0.000 shape_base.py:1185(tile)
   139737    0.064    0.000    0.110    0.000 numeric.py:1855(isscalar)
     1629    0.063    0.000    0.125    0.000 fnmatch.py:74(translate)
   216022    0.063    0.000    0.175    0.000 _base.py:291(nnz)
   595014    0.063    0.000    0.063    0.000 {built-in method numpy.asarray}
   169980    0.063    0.000    0.063    0.000 system.py:2595(_call_user_function)
     2628    0.062    0.000    6.453    0.002 petsc_ksp.py:382(apply)
  1237880    0.062    0.000    0.062    0.000 {method 'append' of 'list' objects}
    29548    0.061    0.000    0.193    0.000 general_utils.py:46(ensure_compatible)
   7907/1    0.058    0.000    2.007    2.007 system.py:2160(_setup_vectors)
   586160    0.058    0.000    0.058    0.000 system.py:4486(_iter_call_apply_linear)
     5828    0.058    0.000    0.058    0.000 {method 'solve' of 'SuperLU' objects}
        1    0.058    0.058    0.073    0.073 group.py:1297(_get_all_promotes)
    16321    0.058    0.000    0.159    0.000 linalg.py:2383(norm)
  23721/3    0.058    0.000    0.060    0.020 system.py:3536(get_responses)
    56513    0.058    0.000    0.223    0.000 units.py:854(_find_unit)
    70478    0.056    0.000    0.068    0.000 _coo.py:240(getnnz)
  23721/3    0.056    0.000    0.059    0.020 system.py:3392(get_design_vars)
     3200    0.056    0.000    0.070    0.000 vortex_mesh.py:209(compute)
        1    0.055    0.055    0.123    0.123 group.py:374(_compute_root_scale_factors)
   700158    0.054    0.000    0.054    0.000 {method 'partition' of 'str' objects}
   106643    0.054    0.000    0.063    0.000 recording_iteration_stack.py:79(push)
    27201    0.053    0.000    0.483    0.000 utils.py:4(norm)
4899/1634    0.052    0.000    0.091    0.000 _compiler.py:37(_compile)
    15312    0.052    0.000    0.270    0.000 system.py:2384(resolve)
   647938    0.051    0.000    0.051    0.000 vector.py:308(_abs_iter)
   106643    0.051    0.000    0.060    0.000 recording_iteration_stack.py:92(pop)
   397239    0.051    0.000    0.051    0.000 {method 'rpartition' of 'str' objects}
     3200    0.050    0.000    0.125    0.000 displacement_transfer.py:82(compute)
   716071    0.050    0.000    0.050    0.000 {method 'add' of 'set' objects}
     3392    0.050    0.000    0.802    0.000 solver.py:313(<listcomp>)
   109331    0.049    0.000    0.049    0.000 {built-in method numpy.zeros}
     3360    0.049    0.000    0.084    0.000 _decomp_lu.py:15(lu_factor)
    61818    0.049    0.000    0.057    0.000 digraph.py:643(add_edge)
   231702    0.048    0.000    0.163    0.000 graph.py:489(__getitem__)
    41696    0.047    0.000    0.067    0.000 _sputils.py:238(isshape)
     6302    0.047    0.000    0.093    0.000 component.py:262(_setup_var_data)
   643629    0.045    0.000    0.045    0.000 {built-in method _operator.index}
    28624    0.045    0.000    0.045    0.000 {method 'ravel' of 'numpy.ndarray' objects}
   557490    0.045    0.000    0.045    0.000 {method 'items' of 'dict' objects}
     2400    0.045    0.000    0.596    0.000 vector_algebra.py:75(compute_cross_deriv2)
     3200    0.044    0.000    0.610    0.000 fem.py:228(assemble_CSC_K)
   145544    0.043    0.000    0.043    0.000 _compressed.py:108(getnnz)
    22240    0.043    0.000    0.045    0.000 default_transfer.py:15(_merge)
    85118    0.043    0.000    0.043    0.000 {method 'reshape' of 'numpy.ndarray' objects}
     3200    0.043    0.000    0.103    0.000 mtx_rhs.py:125(compute)
     8555    0.042    0.000    0.073    0.000 jacobian.py:137(__setitem__)
   241163    0.042    0.000    0.058    0.000 _parser.py:162(__getitem__)
   366060    0.042    0.000    0.042    0.000 {method 'view' of 'numpy.ndarray' objects}
     7905    0.041    0.000    0.157    0.000 group.py:2887(add_subsystem)
    63428    0.041    0.000    0.089    0.000 solver.py:339(_mpi_print)
     9763    0.041    0.000    0.048    0.000 numeric.py:841(outer)
   269961    0.040    0.000    0.040    0.000 system.py:2707(_recording_iter)
    22243    0.040    0.000    0.057    0.000 numeric.py:274(full)
     5610    0.039    0.000    0.039    0.000 {built-in method scipy.sparse._sparsetools.csr_sum_duplicates}
   300438    0.039    0.000    0.039    0.000 {method 'values' of 'dict' objects}
     6400    0.039    0.000    1.161    0.000 implicitcomponent.py:118(_solve_nonlinear)
    57600    0.038    0.000    0.038    0.000 {method 'setTolerances' of 'petsc4py.PETSc.KSP' objects}
    27967    0.038    0.000    0.038    0.000 options_dictionary.py:70(__init__)
     1760    0.038    0.000    0.483    0.000 vector_algebra.py:58(compute_cross_deriv1)
     2262    0.036    0.000    0.158    0.000 _dia.py:392(tocoo)
     6291    0.036    0.000    0.041    0.000 component.py:316(_setup_var_sizes)
     5828    0.036    0.000    0.079    0.000 _decomp_lu.py:89(lu_solve)
    42902    0.034    0.000    0.055    0.000 shape_base.py:23(atleast_1d)
   418475    0.034    0.000    0.034    0.000 general_utils.py:826(match_prom_or_abs)
     6291    0.034    0.000    4.757    0.001 component.py:163(_setup_procs)
   231702    0.034    0.000    0.047    0.000 coreviews.py:49(__iter__)
   153927    0.034    0.000    0.042    0.000 {built-in method builtins.hasattr}
   110515    0.033    0.000    0.033    0.000 getlimits.py:696(min)
    23275    0.033    0.000    0.037    0.000 units.py:565(name)
    79734    0.032    0.000    0.065    0.000 component.py:390(_run_root_only)
       37    0.032    0.001    0.032    0.001 introspection.py:114(<dictcomp>)
    13424    0.032    0.000    0.044    0.000 _base.py:78(_csc_container)
     6291    0.031    0.000    0.524    0.000 component.py:339(_setup_partials)
     3200    0.031    0.000    0.040    0.000 convert_velocity.py:77(compute)
     4032    0.031    0.000    0.229    0.000 solver.py:146(__init__)
     3200    0.031    0.000    0.084    0.000 eval_velocities.py:115(compute)
    79853    0.031    0.000    0.031    0.000 {method 'sub' of 're.Pattern' objects}
   125483    0.030    0.000    0.030    0.000 _parser.py:231(__next)
  13776/1    0.030    0.000   22.425   22.425 group.py:3173(_solve_nonlinear)
   282853    0.030    0.000    0.030    0.000 multiarray.py:1080(copyto)
   1616/1    0.030    0.000    0.068    0.068 group.py:1582(_resolve_src_inds)
   110772    0.029    0.000    0.052    0.000 __init__.py:253(escape)
    18696    0.029    0.000    0.065    0.000 component.py:1498(_find_partial_matches)
  13616/1    0.029    0.000   22.425   22.425 nonlinear_runonce.py:28(solve)
    29615    0.028    0.000    0.028    0.000 {method 'intersection' of 'set' objects}
      160    0.028    0.000    0.040    0.000 viscous_drag.py:116(compute_partials)
   130256    0.027    0.000    0.027    0.000 {method 'split' of 'str' objects}
   139806    0.027    0.000    0.033    0.000 _sputils.py:308(<genexpr>)
4900/1635    0.027    0.000    0.029    0.000 _parser.py:172(getwidth)
     4340    0.027    0.000    0.292    0.000 _coo.py:372(tocsr)
    23436    0.027    0.000    0.196    0.000 units.py:1088(simplify_unit)
    52643    0.027    0.000    0.027    0.000 {method 'format' of 'str' objects}
      160    0.026    0.000    0.179    0.001 vonmises_tube.py:63(compute)
     9188    0.026    0.000    0.061    0.000 function_base.py:564(asarray_chkfinite)
   259212    0.026    0.000    0.026    0.000 numeric.py:1389(_moveaxis_dispatcher)
     3840    0.026    0.000    0.837    0.000 vector_algebra.py:104(compute_norm_deriv)
    29549    0.026    0.000    0.026    0.000 component.py:288(<dictcomp>)
    14720    0.026    0.000    0.445    0.000 vector_algebra.py:8(add_ones_axis)
   120588    0.025    0.000    0.054    0.000 _parser.py:252(get)
    89987    0.025    0.000    0.025    0.000 system.py:558(under_approx)
    90690    0.025    0.000    0.025    0.000 {built-in method builtins.max}
    18708    0.025    0.000    0.106    0.000 _compressed.py:1081(__get_has_canonical_format)
     7920    0.025    0.000    0.025    0.000 system.py:2018(_setup_var_data)
     3200    0.025    0.000    0.031    0.000 create_rhs.py:40(compute)
    56578    0.024    0.000    0.097    0.000 __init__.py:178(sub)
     4800    0.024    0.000    0.110    0.000 utils.py:17(unit_d)
    57600    0.024    0.000    0.031    0.000 petsc_ksp.py:424(_get_ksp_solver)
   1616/1    0.023    0.000    5.965    5.965 group.py:508(_setup_procs)
    47448    0.023    0.000    0.393    0.000 default_vector.py:154(_initialize_data)
     7907    0.023    0.000    0.079    0.000 system.py:1982(_setup_procs)
   259212    0.023    0.000    0.023    0.000 {method 'insert' of 'list' objects}
    47448    0.023    0.000    2.101    0.000 default_vector.py:36(__init__)
     2240    0.023    0.000    0.127    0.000 _construct.py:73(diags)
    62856    0.022    0.000    0.114    0.000 petsc_ksp.py:66(_get_petsc_vec_array_new)
   218855    0.022    0.000    0.022    0.000 _base.py:119(get_shape)
    98123    0.022    0.000    0.024    0.000 {built-in method _abc._abc_instancecheck}
   115681    0.022    0.000    0.028    0.000 _parser.py:170(append)
   110533    0.022    0.000    0.022    0.000 getlimits.py:709(max)
        1    0.022    0.022    0.022    0.022 system.py:2038(_setup_global_shapes)
   344184    0.022    0.000    0.022    0.000 {method 'pop' of 'list' objects}
   262449    0.022    0.000    0.022    0.000 {method 'extend' of 'list' objects}
   243920    0.022    0.000    0.022    0.000 group.py:2208(<genexpr>)
      640    0.021    0.000    0.303    0.000 eval_mtx.py:85(_compute_semi_infinite_vortex_deriv)
      160    0.021    0.000    0.051    0.000 geometry.py:181(compute_partials)
     1454    0.021    0.000    0.043    0.000 {built-in method _collections._count_elements}
    46615    0.021    0.000    0.035    0.000 {built-in method builtins.any}
     3200    0.021    0.000    0.189    0.000 panel_forces.py:100(compute)
    36626    0.021    0.000    0.021    0.000 _base.py:749(__getattr__)
     6291    0.020    0.000    0.035    0.000 component.py:1603(_resolve_src_inds)
    54206    0.020    0.000    0.138    0.000 {method 'max' of 'numpy.ndarray' objects}
    69252    0.020    0.000    0.020    0.000 _util.py:143(_prune_array)
   1450/1    0.020    0.000    6.900    6.900 group.py:3355(_linearize)
    54206    0.020    0.000    0.116    0.000 {method 'min' of 'numpy.ndarray' objects}
    46438    0.020    0.000    0.020    0.000 _base.py:105(__init__)
    28399    0.020    0.000    0.023    0.000 digraph.py:420(add_node)
    43899    0.020    0.000    0.024    0.000 fromnumeric.py:3176(ndim)
     3392    0.020    0.000    1.296    0.000 solver.py:266(_setup_solvers)
     6291    0.019    0.000    0.645    0.000 component.py:91(__init__)
     7522    0.019    0.000    0.021    0.000 indexer.py:319(__init__)
   231704    0.019    0.000    0.019    0.000 coreviews.py:43(__init__)
    42475    0.019    0.000    0.019    0.000 system.py:570(msginfo)
    44800    0.019    0.000    0.024    0.000 name_maps.py:272(abs_key_iter)
     2564    0.019    0.000    0.364    0.000 _compressed.py:507(_mul_sparse_matrix)
    81418    0.019    0.000    0.537    0.000 __init__.py:225(compile)
   245465    0.019    0.000    0.019    0.000 solver.py:1066(does_recursive_applies)
   142103    0.019    0.000    0.019    0.000 fromnumeric.py:2172(_sum_dispatcher)
    15508    0.018    0.000    0.018    0.000 {built-in method scipy.sparse._sparsetools.csr_has_canonical_format}
      160    0.018    0.000   21.743    0.136 solver.py:615(_solve)
      718    0.018    0.000    0.019    0.000 total_jac.py:1288(simple_single_jac_scatter)
3262/1633    0.018    0.000    0.023    0.000 _compiler.py:434(_get_literal_prefix)
   110772    0.018    0.000    0.018    0.000 {method 'translate' of 'str' objects}
    22213    0.018    0.000    0.091    0.000 fromnumeric.py:2692(max)
      160    0.018    0.000    1.215    0.008 wing_weight_loads.py:36(setup)
    18708    0.018    0.000    0.498    0.000 _compressed.py:1111(sum_duplicates)
   1616/1    0.017    0.000    6.926    6.926 group.py:479(_configure)
     3200    0.017    0.000    0.888    0.000 fem.py:157(solve_nonlinear)
    46438    0.017    0.000    0.037    0.000 _data.py:20(__init__)
  15814/2    0.017    0.000    0.018    0.009 system.py:2065(_setup_driver_units)
    21412    0.017    0.000    0.017    0.000 {method 'repeat' of 'numpy.ndarray' objects}
   154235    0.017    0.000    0.017    0.000 {method 'get' of 'dict' objects}
        1    0.016    0.016    0.102    0.102 group.py:1230(set_initial_values)
     5256    0.016    0.000    0.163    0.000 implicitcomponent.py:270(_solve_linear)
    98123    0.016    0.000    0.040    0.000 <frozen abc>:117(__instancecheck__)
    29527    0.016    0.000    0.020    0.000 general_utils.py:726(make_set)
        1    0.016    0.016   47.295   47.295 group.py:680(_setup)
    29527    0.016    0.000    0.031    0.000 component.py:33(_valid_var_name)
     5971    0.016    0.000    0.537    0.000 explicitcomponent.py:140(_setup_partials)
    87722    0.015    0.000    0.015    0.000 {built-in method numpy.promote_types}
    17244    0.015    0.000    0.019    0.000 _parser.py:367(_escape)
     1619    0.015    0.000    0.015    0.000 _compiler.py:405(_generate_overlap_table)
     2262    0.015    0.000    0.077    0.000 _dia.py:89(__init__)
   183312    0.015    0.000    0.015    0.000 system.py:5964(is_explicit)
    19474    0.015    0.000    0.020    0.000 _sputils.py:216(isintlike)
    26086    0.014    0.000    0.021    0.000 <frozen importlib._bootstrap>:405(parent)
    54585    0.014    0.000    0.014    0.000 {built-in method math.prod}
   139806    0.014    0.000    0.014    0.000 _sputils.py:313(<genexpr>)
        1    0.014    0.014    1.834    1.834 group.py:760(_init_relevance)
   162402    0.014    0.000    0.014    0.000 multiarray.py:503(can_cast)
     3200    0.014    0.000    0.025    0.000 total_loads.py:62(compute)
    24484    0.014    0.000    0.015    0.000 component.py:1529(_check_partials_meta)
   233426    0.014    0.000    0.014    0.000 {built-in method builtins.iter}
    54206    0.014    0.000    0.096    0.000 _methods.py:43(_amin)
      160    0.013    0.000    0.019    0.000 load_transfer.py:154(compute_partials)
     1920    0.013    0.000    0.189    0.000 _compressed.py:1238(_binopt)
    54206    0.013    0.000    0.118    0.000 _methods.py:39(_amax)
     3840    0.013    0.000    0.582    0.000 vector_algebra.py:26(compute_dot_deriv)
   7907/1    0.013    0.000    1.394    1.394 system.py:2219(_setup_solvers)
     5922    0.013    0.000    0.016    0.000 twodim_base.py:158(eye)
   165546    0.013    0.000    0.013    0.000 {method 'group' of 're.Match' objects}
    15819    0.013    0.000    0.163    0.000 <frozen _collections_abc>:771(get)
      718    0.013    0.000    3.723    0.005 total_jac.py:1142(single_input_setter)
    22240    0.013    0.000    0.021    0.000 _sputils.py:22(upcast)
     9188    0.012    0.000    0.016    0.000 blas.py:384(getter)
      160    0.012    0.000    0.134    0.001 fem.py:54(setup)
    17736    0.012    0.000    0.012    0.000 explicitcomponent.py:77(_get_partials_varlists)
      160    0.012    0.000    0.111    0.001 load_transfer.py:31(setup)
      160    0.012    0.000    0.237    0.001 geometry.py:43(setup)
      160    0.012    0.000    0.024    0.000 lift_coeff_2D.py:92(compute_partials)
     3200    0.012    0.000    0.227    0.000 linsolve.py:318(splu)
     2262    0.012    0.000    0.014    0.000 arraysetops.py:323(_unique1d)
     9600    0.012    0.000    0.067    0.000 utils.py:8(unit)
   121067    0.011    0.000    0.011    0.000 {method 'startswith' of 'str' objects}
    15815    0.011    0.000    0.182    0.000 general_utils.py:886(env_truthy)
     2080    0.011    0.000   25.288    0.012 system.py:2510(_scaled_context_all)
     1454    0.011    0.000    0.011    0.000 group.py:2208(<listcomp>)
        1    0.011    0.011  627.167  627.167 total_jac.py:1511(compute_totals)
    17031    0.011    0.000    0.011    0.000 _sputils.py:109(getdtype)
    28555    0.011    0.000    0.026    0.000 jacobian.py:68(_get_abs_key)
    21009    0.010    0.000    0.059    0.000 fromnumeric.py:2322(any)
     3200    0.010    0.000    0.021    0.000 panel_forces_surf.py:67(compute)
    20000    0.010    0.000    0.019    0.000 jacobian.py:116(__getitem__)
     4499    0.010    0.000    6.844    0.002 explicitcomponent.py:496(_linearize)
    17014    0.010    0.000    0.023    0.000 _sputils.py:135(getdata)
     5971    0.010    0.000    0.644    0.000 explicitcomponent.py:28(__init__)
    18696    0.010    0.000    0.013    0.000 component.py:1525(<listcomp>)
    16592    0.010    0.000    0.127    0.000 units.py:975(is_compatible)
        2    0.010    0.005    0.040    0.020 recording_manager.py:163(_get_all_viewer_data_recorders)
    42549    0.010    0.000    0.014    0.000 _base.py:1301(isspmatrix)
    54585    0.010    0.000    0.024    0.000 array_utils.py:18(shape_to_len)
  15814/2    0.010    0.000    0.010    0.005 system.py:2763(_setup_solver_print)
     5782    0.010    0.000    0.714    0.000 _base.py:510(_mul_dispatch)
      160    0.009    0.000    0.064    0.000 vortex_mesh.py:35(setup)
   1616/1    0.009    0.000    0.587    0.587 group.py:3467(_setup_partials)
     6291    0.009    0.000    0.053    0.000 component.py:108(_declare_options)
    44176    0.009    0.000    0.009    0.000 _sputils.py:93(to_native)
    86402    0.009    0.000    0.009    0.000 numeric.py:1464(_cross_dispatcher)
    56798    0.009    0.000    0.009    0.000 {built-in method numpy.asanyarray}
     2890    0.009    0.000    5.727    0.002 explicitcomponent.py:475(_compute_partials_wrapper)
6479/6469    0.009    0.000    0.014    0.000 group.py:3012(connect)
    15819    0.009    0.000    0.014    0.000 <frozen os>:756(encode)
     3200    0.009    0.000    0.129    0.000 solve_matrix.py:69(solve_nonlinear)
    49968    0.008    0.000    0.008    0.000 solver.py:223(_recording_iter)
     8604    0.008    0.000    0.250    0.000 explicitcomponent.py:182(add_output)
     3232    0.008    0.000    0.008    0.000 {method 'cumsum' of 'numpy.ndarray' objects}
        1    0.008    0.008    0.250    0.250 introspection.py:747(configure_timeseries_output_introspection)
        1    0.008    0.008    0.085    0.085 group.py:1489(_resolve_src_indices)
    52468    0.008    0.000    0.008    0.000 _csc.py:230(_swap)
      160    0.008    0.000    0.016    0.000 lagrange.py:4(lagrange_matrices)
    26864    0.008    0.000    0.009    0.000 general_utils.py:244(format_as_float_or_array)
    21118    0.008    0.000    0.011    0.000 _compressed.py:1103(__set_has_canonical_format)
    43930    0.008    0.000    0.008    0.000 system.py:2715(_static_mode)
     3200    0.008    0.000    0.011    0.000 _csc.py:236(isspmatrix_csc)
     3200    0.008    0.000    0.010    0.000 utils.py:26(cross_d)
     3200    0.008    0.000    1.114    0.000 nonlinear_block_gs.py:209(_run_apply)
     7906    0.008    0.000    0.009    0.000 system.py:783(_apply_output_solver_options)
     4340    0.008    0.000    0.011    0.000 _base.py:83(_csr_container)
     3200    0.008    0.000    0.008    0.000 {built-in method scipy.sparse._sparsetools.csc_matvec}
     1617    0.008    0.000    0.022    0.000 group.py:1087(_get_var_offsets)
    10795    0.008    0.000    0.015    0.000 name_maps.py:240(key2abs_key)
     1616    0.008    0.000    0.010    0.000 array_utils.py:346(_global2local_offsets)
    14701    0.008    0.000    0.013    0.000 options_dictionary.py:498(__setitem__)
     7328    0.008    0.000    0.010    0.000 shape_base.py:81(atleast_2d)
      813    0.008    0.000    0.025    0.000 array_utils.py:251(array_connection_compatible)
     3218    0.008    0.000    0.022    0.000 _compressed.py:480(_mul_vector)
     1454    0.008    0.000    0.010    0.000 group.py:2214(<listcomp>)
    10795    0.008    0.000    0.008    0.000 name_maps.py:42(rel_key2abs_key)
      160    0.008    0.000    0.009    0.000 viscous_drag.py:68(compute)
     6400    0.007    0.000    0.043    0.000 utils.py:12(norm_d)
    28578    0.007    0.000    0.044    0.000 recording_manager.py:151(_get_all_requesters)
        2    0.007    0.004    0.011    0.006 driver.py:531(<listcomp>)
    18696    0.007    0.000    0.007    0.000 component.py:1416(<dictcomp>)
    12669    0.007    0.000    3.816    0.000 fromnumeric.py:53(_wrapfunc)
     1616    0.007    0.000    0.275    0.000 group.py:191(__init__)
        4    0.007    0.002    0.020    0.005 driver.py:505(<listcomp>)
      160    0.007    0.000    0.114    0.001 collocation_points.py:44(setup)
    29556    0.007    0.000    0.007    0.000 vector.py:242(_name2abs_name)
       40    0.007    0.000    0.008    0.000 lgr.py:4(lgr)
    12194    0.007    0.000    0.026    0.000 _sputils.py:211(isscalarlike)
    78593    0.007    0.000    0.007    0.000 multiarray.py:85(empty_like)
     5635    0.007    0.000    0.007    0.000 system.py:2404(<dictcomp>)
     5610    0.007    0.000    0.296    0.000 _compressed.py:1159(sort_indices)
    12902    0.007    0.000    0.007    0.000 class_util.py:6(overrides_method)
  13616/1    0.007    0.000   22.425   22.425 nonlinear_runonce.py:25(_solve_with_cache_check)
     2798    0.007    0.000    0.009    0.000 _base.py:73(_coo_container)
      480    0.006    0.000    0.017    0.000 {numpy.random._generator.default_rng}
13952/13813    0.006    0.000    0.024    0.000 indexer.py:242(set_src_shape)
    21222    0.006    0.000    0.006    0.000 {built-in method builtins.min}
     5828    0.006    0.000    0.009    0.000 solver.py:46(pop)
3264/1634    0.006    0.000    0.261    0.000 _parser.py:447(_parse_sub)
    40819    0.006    0.000    0.006    0.000 {method 'copy' of 'dict' objects}
      160    0.006    0.000    0.019    0.000 lift_drag.py:68(compute_partials)
        2    0.006    0.003    0.006    0.003 {built-in method _pickle.load}
    38692    0.006    0.000    0.006    0.000 general_utils.py:345(find_matches)
    15815    0.006    0.000    0.008    0.000 general_utils.py:869(is_truthy)
     7907    0.006    0.000    0.041    0.000 system.py:5941(_set_problem_meta)
   1616/1    0.006    0.000    0.009    0.009 check_config.py:771(check_allocate_complex_ln)
    13952    0.006    0.000    0.014    0.000 indexer.py:284(_get_shapes)
    57600    0.006    0.000    0.006    0.000 solver.py:887(_set_matvec_scope)
    86088    0.006    0.000    0.006    0.000 {method 'strip' of 'str' objects}
      160    0.006    0.000    0.103    0.001 vonmises_tube.py:30(setup)
     2262    0.006    0.000    0.008    0.000 _dia.py:446(isspmatrix_dia)
        1    0.006    0.006    0.006    0.006 group.py:2238(_setup_dynamic_shapes)
     1634    0.006    0.000    0.075    0.000 _compiler.py:509(_compile_info)
     7741    0.006    0.000    0.011    0.000 dictionary_jacobian.py:26(__init__)
    42999    0.006    0.000    0.006    0.000 numeric.py:63(_zeros_like_dispatcher)
     2628    0.006    0.000    0.041    0.000 fem.py:195(solve_linear)
    36122    0.006    0.000    0.006    0.000 _data.py:23(_get_dtype)
     9189    0.006    0.000    0.032    0.000 {method 'all' of 'numpy.ndarray' objects}
     5300    0.006    0.000    0.006    0.000 system.py:1836(_get_static_coloring)
   7907/1    0.005    0.000    0.005    0.005 system.py:1935(_setup_recording)
   1616/1    0.005    0.000    0.010    0.010 group.py:638(_configure_check)
        1    0.005    0.005    6.047    6.047 phase.py:1792(configure)
      160    0.005    0.000    0.144    0.001 displacement_transfer.py:40(setup)
   110792    0.005    0.000    0.005    0.000 {built-in method builtins.ord}
    22435    0.005    0.000    0.005    0.000 options_dictionary.py:447(undeclare)
    18696    0.005    0.000    0.008    0.000 component.py:1526(<listcomp>)
    51408    0.005    0.000    0.005    0.000 system.py:2429(<genexpr>)
    29548    0.005    0.000    0.006    0.000 component.py:876(_var_added)
      160    0.005    0.000    0.016    0.000 moment_coefficient.py:65(compute)
    11947    0.005    0.000    0.015    0.000 options_dictionary.py:459(update)
     7741    0.005    0.000    0.005    0.000 jacobian.py:55(__init__)
     3200    0.005    0.000    0.060    0.000 horseshoe_circulations.py:90(compute)
      160    0.005    0.000    0.012    0.000 coeffs.py:57(compute_partials)
      718    0.005    0.000    3.710    0.005 total_jac.py:1132(_zero_vecs)
     5610    0.005    0.000    0.015    0.000 _compressed.py:1127(__get_sorted)
      160    0.005    0.000    0.009    0.000 failure_ks.py:70(compute_partials)
      718    0.005    0.000    0.024    0.000 total_jac.py:1370(single_jac_setter)
     3200    0.005    0.000    0.073    0.000 default_vector.py:537(get_norm)
   1936/1    0.005    0.000    0.013    0.013 system.py:2239(_setup_jacobians)
     2628    0.005    0.000    0.053    0.000 solve_matrix.py:81(solve_linear)
      320    0.005    0.000    0.176    0.001 get_vectors.py:35(setup)
      160    0.005    0.000    0.138    0.001 mtx_rhs.py:40(setup)
     8373    0.005    0.000    0.021    0.000 fromnumeric.py:423(repeat)
    20316    0.005    0.000    0.005    0.000 name_maps.py:294(<listcomp>)
    26474    0.005    0.000    0.005    0.000 shape_base.py:1267(<genexpr>)
      480    0.005    0.000    0.005    0.000 {function SeedSequence.generate_state at 0x7f08a4ef6980}
    22326    0.005    0.000    0.005    0.000 {built-in method builtins.hash}
     2240    0.005    0.000    0.006    0.000 _construct.py:173(<listcomp>)
     1634    0.005    0.000    0.444    0.000 _compiler.py:738(compile)
    16130    0.005    0.000    0.007    0.000 {built-in method builtins.all}
     3210    0.004    0.000    0.012    0.000 component.py:1592(_check_first_linearize)
    57600    0.004    0.000    0.004    0.000 solver.py:874(does_recursive_applies)
     3200    0.004    0.000    0.013    0.000 disp.py:44(compute)
      160    0.004    0.000    0.171    0.001 aerostruct_groups.py:215(setup)
      160    0.004    0.000    0.045    0.000 mesh_point_forces.py:35(setup)
    16656    0.004    0.000    0.004    0.000 solver.py:423(record_iteration)
        1    0.004    0.004  701.974  701.974 run_opt_cProfile.py:27(main)
    15486    0.004    0.000    0.006    0.000 solver.py:209(msginfo)
    43899    0.004    0.000    0.004    0.000 fromnumeric.py:3172(_ndim_dispatcher)
     3222    0.004    0.000    0.051    0.000 _base.py:400(dot)
     5971    0.004    0.000    0.009    0.000 explicitcomponent.py:65(_configure)
     6291    0.004    0.000    0.004    0.000 component.py:241(_configure_check)
    27445    0.004    0.000    0.004    0.000 system.py:2695(_use_derivatives)
     7907    0.004    0.000    0.005    0.000 system.py:4570(load_model_options)
    31814    0.004    0.000    0.004    0.000 shape_base.py:1257(<genexpr>)
      160    0.004    0.000    0.007    0.000 lift_drag.py:48(compute)
      640    0.004    0.000    1.078    0.002 complex_step.py:90(compute_approx_col_iter)
     1616    0.004    0.000    0.006    0.000 group.py:606(<listcomp>)
    27339    0.004    0.000    0.004    0.000 {built-in method builtins.issubclass}
    15819    0.004    0.000    0.004    0.000 {method 'encode' of 'str' objects}
     2240    0.004    0.000    0.006    0.000 type_check.py:682(common_type)
    21118    0.004    0.000    0.004    0.000 _compressed.py:1143(__set_sorted)
      160    0.004    0.000    0.125    0.001 panel_forces.py:37(setup)
   9528/7    0.004    0.000    0.609    0.087 system.py:155(wrapper)
     4848    0.004    0.000    0.020    0.000 _compressed.py:125(_set_self)
      160    0.004    0.000    0.310    0.002 states.py:28(setup)
     3404    0.004    0.000    0.006    0.000 indexer.py:110(copy)
      640    0.004    0.000    1.056    0.002 approximation_scheme.py:453(_uncolored_column_iter)
    44102    0.003    0.000    0.003    0.000 multiarray.py:153(concatenate)
      160    0.003    0.000    0.109    0.001 eval_velocities.py:41(setup)
     1634    0.003    0.000    0.268    0.000 _parser.py:970(parse)
     9189    0.003    0.000    0.027    0.000 _methods.py:61(_all)
    42902    0.003    0.000    0.003    0.000 shape_base.py:19(_atleast_1d_dispatcher)
      160    0.003    0.000    0.090    0.001 lift_coeff_2D.py:38(setup)
     3268    0.003    0.000    0.007    0.000 enum.py:1503(__and__)
    54716    0.003    0.000    0.003    0.000 group.py:76(__iter__)
      160    0.003    0.000    0.014    0.000 displacement_transfer.py:103(compute_partials)
      160    0.003    0.000    0.013    0.000 convert_velocity.py:93(compute_partials)
     2564    0.003    0.000    0.003    0.000 {built-in method scipy.sparse._sparsetools.csr_matmat}
        1    0.003    0.003    0.016    0.016 introspection.py:594(configure_states_discovery)
      160    0.003    0.000    0.004    0.000 compute_transformation_matrix.py:94(compute_partials)
      160    0.003    0.000    0.061    0.000 panel_forces.py:110(compute_partials)
     7388    0.003    0.000    0.003    0.000 group.py:2983(<listcomp>)
      160    0.003    0.000    0.069    0.000 horseshoe_circulations.py:32(setup)
    23200    0.003    0.000    0.003    0.000 {built-in method builtins.abs}
     1288    0.003    0.000    0.005    0.000 shape_base.py:292(hstack)
        1    0.003    0.003    0.014    0.014 system.py:721(_have_output_solver_options_been_applied)
      160    0.003    0.000    0.005    0.000 lift_coeff_2D.py:71(compute)
    11817    0.003    0.000    0.003    0.000 solver.py:230(_solver_info)
    45933    0.003    0.000    0.003    0.000 _csr.py:231(_swap)
     3200    0.003    0.000    0.004    0.000 _base.py:240(asfptype)
     5610    0.003    0.000    0.003    0.000 {built-in method scipy.sparse._sparsetools.csr_has_sorted_indices}
     6722    0.003    0.000    0.022    0.000 indexer.py:452(shaped_instance)
      160    0.003    0.000    0.005    0.000 failure_ks.py:59(compute)
     2240    0.003    0.000    0.306    0.000 _base.py:983(tocsr)
     6291    0.003    0.000    0.003    0.000 component.py:226(_set_vector_class)
     2628    0.003    0.000    0.004    0.000 solver.py:70(append_precon)
        1    0.003    0.003    0.003    0.003 group.py:1363(_check_prom_masking)
     1936    0.003    0.000    0.029    0.000 linear_block_gs.py:40(_declare_options)
     2240    0.003    0.000    0.640    0.000 _base.py:602(_mul_sparse_matrix)
     3677    0.003    0.000    0.018    0.000 fromnumeric.py:2979(prod)
     1936    0.003    0.000    0.033    0.000 linear_runonce.py:43(_declare_options)
     2564    0.003    0.000    0.003    0.000 {built-in method scipy.sparse._sparsetools.csr_matmat_maxnnz}
     3200    0.003    0.000    0.075    0.000 solver.py:750(_iter_get_norm)
    25499    0.002    0.000    0.002    0.000 group.py:2984(<lambda>)
     3222    0.002    0.000    0.039    0.000 _base.py:626(__matmul__)
    20620    0.002    0.000    0.002    0.000 graph.py:453(__contains__)
     6833    0.002    0.000    0.005    0.000 indexer.py:166(indexed_src_size)
     2084    0.002    0.000    0.002    0.000 jacobian.py:76(_abs_key2shape)
     3200    0.002    0.000    0.004    0.000 _sputils.py:362(is_pydata_spmatrix)
     6984    0.002    0.000    0.139    0.000 _base.py:348(asformat)
     1667    0.002    0.000    0.006    0.000 configinfo.py:75(_modified_system_iter)
        1    0.002    0.002    0.015    0.015 recording_manager.py:170(_get_all_recorders)
     6808    0.002    0.000    0.004    0.000 group.py:62(__init__)
     1444    0.002    0.000    0.003    0.000 component.py:1226(set_check_partial_options)
    14392    0.002    0.000    0.003    0.000 general_utils.py:1073(shape2tuple)
     4660    0.002    0.000    0.008    0.000 system.py:1879(_get_coloring)
     2262    0.002    0.000    0.017    0.000 arraysetops.py:138(unique)
     1776    0.002    0.000    0.109    0.000 solver.py:529(__init__)
     3200    0.002    0.000    0.003    0.000 solver.py:62(append_subsolver)
     2256    0.002    0.000    0.125    0.000 solver.py:863(__init__)
    16257    0.002    0.000    0.002    0.000 {method 'lower' of 'str' objects}
    23317    0.002    0.000    0.002    0.000 {method 'items' of 'collections.OrderedDict' objects}
    22213    0.002    0.000    0.002    0.000 fromnumeric.py:2687(_max_dispatcher)
     9921    0.002    0.000    0.002    0.000 {method 'conj' of 'numpy.ndarray' objects}
      160    0.002    0.000    0.003    0.000 total_lift_drag.py:60(compute)
    16592    0.002    0.000    0.002    0.000 units.py:514(is_compatible)
      320    0.002    0.000    0.006    0.000 approximation_scheme.py:214(_init_approximations)
    37746    0.002    0.000    0.002    0.000 component.py:1715(_has_fast_rel_lookup)
     1280    0.002    0.000    0.002    0.000 {built-in method scipy.sparse._sparsetools.csr_plus_csr}
        1    0.002    0.002    0.006    0.006 group.py:4060(_setup_auto_ivcs)
     1629    0.002    0.000    0.587    0.000 fnmatch.py:38(_compile_pattern)
      160    0.002    0.000    0.008    0.000 eval_velocities.py:149(compute_partials)
      160    0.002    0.000    0.097    0.001 solve_matrix.py:30(setup)
      320    0.002    0.000    0.003    0.000 jacobian.py:319(_setup_index_maps)
      160    0.002    0.000    0.004    0.000 wave_drag.py:87(compute_partials)
      320    0.002    0.000    0.006    0.000 jacobian.py:389(set_col)
      160    0.002    0.000    0.043    0.000 compute_transformation_matrix.py:40(setup)
    16321    0.002    0.000    0.002    0.000 linalg.py:2379(_norm_dispatcher)
    11942    0.002    0.000    0.002    0.000 recording_manager.py:19(__init__)
     7714    0.002    0.000    0.003    0.000 _sputils.py:268(isdense)
     1634    0.002    0.000    0.168    0.000 _compiler.py:571(_code)
      960    0.002    0.000    0.004    0.000 fromnumeric.py:40(_wrapit)
     1634    0.002    0.000    0.002    0.000 {built-in method _sre.compile}
      160    0.002    0.000    0.003    0.000 equilibrium.py:82(compute)
      160    0.002    0.000    0.009    0.000 fem.py:173(linearize)
     7906    0.002    0.000    0.003    0.000 inspect.py:292(isclass)
      160    0.002    0.000    0.029    0.000 viscous_drag.py:43(setup)
      160    0.002    0.000    0.009    0.000 mtx_rhs.py:156(compute_partials)
    29710    0.002    0.000    0.002    0.000 indexer.py:501(__call__)
   1616/1    0.002    0.000    0.327    0.327 group.py:2768(_setup_transfers)
     1920    0.002    0.000    0.002    0.000 explicitcomponent.py:102(_jac_wrt_iter)
     3232    0.002    0.000    0.012    0.000 fromnumeric.py:2512(cumsum)
    12573    0.002    0.000    0.002    0.000 transfer.py:31(__init__)
     1616    0.002    0.000    0.937    0.001 solver.py:558(_setup_solvers)
     9806    0.002    0.000    0.003    0.000 _parser.py:247(match)
      640    0.002    0.000    0.002    0.000 {method 'random' of 'numpy.random._generator.Generator' objects}
     6400    0.002    0.000    0.003    0.000 linalg.py:140(isComplexType)
     1616    0.002    0.000    0.427    0.000 solver.py:1079(_setup_solvers)
    15907    0.002    0.000    0.002    0.000 shape_base.py:1181(_tile_dispatcher)
      324    0.002    0.000    0.002    0.000 function_base.py:1324(diff)
     1280    0.002    0.000    0.138    0.000 _base.py:462(__add__)
      160    0.002    0.000    0.214    0.001 total_performance.py:21(setup)
     1616    0.002    0.000    0.003    0.000 nonlinear_runonce.py:50(_declare_options)
    12957    0.002    0.000    0.002    0.000 {method 'rsplit' of 'str' objects}
     7906    0.002    0.000    0.002    0.000 group.py:50(__init__)
      640    0.002    0.000    0.002    0.000 default_vector.py:479(iadd)
      160    0.002    0.000    0.077    0.000 functionals.py:22(setup)
     1629    0.002    0.000    0.003    0.000 _parser.py:894(_parse_flags)
        1    0.002    0.002    0.037    0.037 aero_oas.py:77(setup)
      640    0.002    0.000    0.002    0.000 approximation_scheme.py:635(_is_group)
     6594    0.002    0.000    0.002    0.000 group.py:2986(<listcomp>)
      160    0.002    0.000    0.002    0.000 breguet_range.py:65(compute)
      160    0.002    0.000    0.002    0.000 center_of_gravity.py:71(compute)
     5971    0.002    0.000    0.005    0.000 explicitcomponent.py:170(_setup_jacobians)
     3390    0.002    0.000    0.002    0.000 solver.py:306(<listcomp>)
    21009    0.002    0.000    0.002    0.000 fromnumeric.py:2317(_any_dispatcher)
      160    0.002    0.000    0.023    0.000 wave_drag.py:39(setup)
     6533    0.002    0.000    0.002    0.000 _parser.py:284(tell)
     1936    0.002    0.000    0.013    0.000 solver.py:1059(_declare_options)
    15816    0.002    0.000    0.002    0.000 group.py:1649(<dictcomp>)
        2    0.002    0.001    0.002    0.001 coloring.py:897(_jac2subjac_sparsity)
     3210    0.002    0.000    0.002    0.000 jacobian.py:453(_restore_approx_sparsity)
     3269    0.002    0.000    0.003    0.000 enum.py:689(__call__)
     8169    0.002    0.000    0.002    0.000 _parser.py:158(__len__)
        1    0.002    0.002    0.011    0.011 grid_data.py:257(__init__)
      320    0.002    0.000    1.049    0.003 complex_step.py:180(_run_point)
     1776    0.002    0.000    0.364    0.000 solver.py:917(_setup_solvers)
     7141    0.001    0.000    0.001    0.000 {method 'count' of 'str' objects}
      966    0.001    0.000    0.003    0.000 _ufunc_config.py:33(seterr)
     1450    0.001    0.000    0.004    0.000 group.py:3411(_check_first_linearize)
     8061    0.001    0.000    0.001    0.000 indexer.py:79(__init__)
      160    0.001    0.000    0.042    0.000 moment_coefficient.py:44(setup)
        1    0.001    0.001    0.043    0.043 transcription_base.py:317(configure_states_introspection)
      364    0.001    0.000    0.018    0.000 _compressed.py:1034(tocoo)
      160    0.001    0.000    0.080    0.001 center_of_gravity.py:47(setup)
      160    0.001    0.000    0.002    0.000 {method 'createPython' of 'petsc4py.PETSc.Mat' objects}
     1616    0.001    0.000    0.002    0.000 group.py:618(<listcomp>)
     3360    0.001    0.000    0.007    0.000 indexer.py:348(copy)
     1936    0.001    0.000    0.111    0.000 linear_block_gs.py:31(__init__)
     2256    0.001    0.000    0.011    0.000 solver.py:908(_declare_options)
     3422    0.001    0.000    0.004    0.000 indexer.py:204(shaped_array)
     1120    0.001    0.000    0.011    0.000 vector_algebra.py:4(get_array_indices)
      327    0.001    0.000    0.001    0.000 {built-in method _warnings.warn}
      160    0.001    0.000    0.052    0.000 spatial_beam_states.py:18(setup)
2370/2107    0.001    0.000    0.001    0.000 {built-in method _abc._abc_subclasscheck}
      160    0.001    0.000    0.063    0.000 total_loads.py:33(setup)
      160    0.001    0.000    0.073    0.000 aerostruct_groups.py:106(setup)
      480    0.001    0.000    0.001    0.000 system.py:2684(linear_solver)
      640    0.001    0.000    0.002    0.000 system.py:4709(_set_complex_step_mode)
      320    0.001    0.000    1.045    0.003 explicitcomponent.py:288(_apply_nonlinear)
      160    0.001    0.000    0.002    0.000 coeffs.py:47(compute)
      725    0.001    0.000    0.001    0.000 total_jac.py:1027(single_index_iter)
     1616    0.001    0.000    0.077    0.000 solver.py:1094(_create_rhs_vec)
     3269    0.001    0.000    0.001    0.000 enum.py:1094(__new__)
      640    0.001    0.000    0.001    0.000 default_vector.py:493(isub)
     3218    0.001    0.000    0.002    0.000 _sputils.py:56(upcast_char)
     4899    0.001    0.000    0.001    0.000 _parser.py:109(__init__)
     1936    0.001    0.000    0.109    0.000 solver.py:1052(__init__)
      160    0.001    0.000    0.034    0.000 total_lift_drag.py:38(setup)
      966    0.001    0.000    0.001    0.000 _ufunc_config.py:132(geterr)
     1791    0.001    0.000    0.006    0.000 fromnumeric.py:2836(min)
     9188    0.001    0.000    0.001    0.000 _misc.py:181(_datacopied)
     8106    0.001    0.000    0.001    0.000 {built-in method builtins.setattr}
     1634    0.001    0.000    0.002    0.000 _parser.py:222(__init__)
     9763    0.001    0.000    0.001    0.000 numeric.py:837(_outer_dispatcher)
     2242    0.001    0.000    0.001    0.000 type_check.py:302(iscomplexobj)
    11251    0.001    0.000    0.001    0.000 group.py:2987(<lambda>)
      160    0.001    0.000    0.029    0.000 equilibrium.py:51(setup)
     2560    0.001    0.000    0.687    0.000 _base.py:589(__mul__)
      480    0.001    0.000    0.010    0.000 contextlib.py:78(inner)
      960    0.001    0.000    0.001    0.000 implicitcomponent.py:592(_get_partials_varlists)
      160    0.001    0.000    0.035    0.000 panel_forces_surf.py:28(setup)
      640    0.001    0.000    0.001    0.000 {built-in method scipy.sparse._sparsetools.csr_minus_csr}
      960    0.001    0.000    0.025    0.000 implicitcomponent.py:509(_declare_partials)
      160    0.001    0.000    0.063    0.000 non_intersecting_thickness.py:32(setup)
     1454    0.001    0.000    0.045    0.000 __init__.py:585(__init__)
     3396    0.001    0.000    0.001    0.000 recording_manager.py:63(startup)
      320    0.001    0.000    0.021    0.000 implicitcomponent.py:313(_linearize_wrapper)
     1727    0.001    0.000    0.002    0.000 configinfo.py:8(_descendents)
     1280    0.001    0.000    0.131    0.000 _compressed.py:359(_add_sparse)
      160    0.001    0.000    0.106    0.001 spatial_beam_functionals.py:20(setup)
      320    0.001    0.000    0.024    0.000 implicitcomponent.py:336(_linearize)
     1635    0.001    0.000    0.002    0.000 _compiler.py:396(_simple)
     3404    0.001    0.000    0.009    0.000 group.py:95(set_src_shape)
      640    0.001    0.000    0.063    0.000 _base.py:482(__sub__)
      336    0.001    0.000    0.004    0.000 _compressed.py:1048(toarray)
     8373    0.001    0.000    0.001    0.000 fromnumeric.py:419(_repeat_dispatcher)
      160    0.001    0.000    0.009    0.000 solve_matrix.py:74(linearize)
      320    0.001    0.000    1.085    0.003 approximation_scheme.py:570(compute_approximations)
        3    0.001    0.000    0.069    0.023 utils.py:20(setup)
 1019/969    0.001    0.000    0.002    0.000 indexer.py:1291(__call__)
      160    0.001    0.000    0.022    0.000 lift_drag.py:32(setup)
     1280    0.001    0.000    0.001    0.000 system.py:627(_jac_of_iter)
      160    0.001    0.000    0.018    0.000 convert_velocity.py:39(setup)
        3    0.001    0.000    0.001    0.000 utils.py:34(compute)
     3268    0.001    0.000    0.001    0.000 _compiler.py:568(isstring)
        1    0.001    0.001    0.027    0.027 recording_manager.py:207(record_model_options)
     4833    0.001    0.000    0.001    0.000 system.py:2663(nonlinear_solver)
     3360    0.001    0.000    0.002    0.000 indexer.py:385(as_array)
     1616    0.001    0.000    0.001    0.000 group.py:2000(_compute_owning_ranks)
     1654    0.001    0.000    0.007    0.000 configinfo.py:102(_update_modified_systems)
      160    0.001    0.000    0.085    0.001 aerostruct_groups.py:147(setup)
      160    0.001    0.000    0.023    0.000 coeffs.py:28(setup)
      160    0.001    0.000    0.001    0.000 total_drag.py:38(compute)
      160    0.001    0.000    0.035    0.000 disp.py:32(setup)
      160    0.001    0.000    0.035    0.000 create_rhs.py:28(setup)
     7907    0.001    0.000    0.001    0.000 system.py:710(_declare_options)
      160    0.001    0.000    0.001    0.000 sum_areas.py:34(compute)
      160    0.001    0.000    0.024    0.000 breguet_range.py:47(setup)
     1654    0.001    0.000    0.001    0.000 configinfo.py:43(_add_mod_parallel_groups)
     3611    0.001    0.000    0.001    0.000 indexer.py:128(_set_attrs)
      640    0.001    0.000    0.001    0.000 explicitcomponent.py:254(_approx_subjac_keys_iter)
      483    0.001    0.000    0.003    0.000 _ufunc_config.py:430(__enter__)
     1634    0.001    0.000    0.001    0.000 _parser.py:954(fix_flags)
     1097    0.001    0.000    0.003    0.000 fromnumeric.py:2421(all)
     1616    0.001    0.000    0.002    0.000 solver.py:890(_assembled_jac_solver_iter)
      160    0.001    0.000    0.025    0.000 displacement_transfer_group.py:16(setup)
        2    0.001    0.000    0.001    0.000 grid_data.py:158(make_subset_map)
      320    0.001    0.000    0.001    0.000 general_utils.py:1189(__init__)
      640    0.001    0.000    1.064    0.002 approximation_scheme.py:595(_compute_approx_col_iter)
     2262    0.001    0.000    0.001    0.000 arraysetops.py:125(_unpack_tuple)
      160    0.001    0.000    1.120    0.007 nonlinear_block_gs.py:81(_iter_initialize)
     3269    0.001    0.000    0.001    0.000 _compiler.py:31(_combine_flags)
      320    0.001    0.000    0.016    0.000 implicitcomponent.py:360(add_output)
      320    0.001    0.000    0.003    0.000 component.py:1559(_set_approx_partials_meta)
     9702    0.001    0.000    0.001    0.000 system.py:5892(_has_fast_rel_lookup)
        4    0.001    0.000    0.035    0.009 driver.py:472(_get_vars_to_record)
     3270    0.001    0.000    0.001    0.000 _parser.py:79(groups)
     1634    0.001    0.000    0.001    0.000 _parser.py:73(__init__)
      160    0.001    0.000    0.001    0.000 {method 'setType' of 'petsc4py.PETSc.KSP' objects}
     1454    0.001    0.000    0.044    0.000 __init__.py:658(update)
     6723    0.001    0.000    0.001    0.000 indexer.py:371(indexed_src_shape)
      160    0.001    0.000    0.009    0.000 failure_ks.py:40(setup)
      336    0.001    0.000    0.001    0.000 {built-in method scipy.sparse._sparsetools.csr_todense}
      320    0.001    0.000    0.001    0.000 {method 'sum' of 'numpy.generic' objects}
     4034    0.001    0.000    0.001    0.000 {method 'keys' of 'dict' objects}
     7328    0.001    0.000    0.001    0.000 shape_base.py:77(_atleast_2d_dispatcher)
     6291    0.001    0.000    0.001    0.000 system.py:1394(_setup_check)
        3    0.001    0.000    0.014    0.005 grid_data.py:425(phase_lagrange_matrices)
      320    0.001    0.000    0.008    0.000 approximation_scheme.py:87(_get_approx_groups)
       21    0.001    0.000    0.001    0.000 group.py:3899(_get_auto_ivc_out_val)
     1616    0.001    0.000    0.001    0.000 group.py:3808(_setup_check)
      320    0.001    0.000    1.047    0.003 system.py:3740(run_apply_nonlinear)
      966    0.001    0.000    0.001    0.000 {built-in method numpy.seterrobj}
     1618    0.001    0.000    0.001    0.000 group.py:1915(_find_vars_to_gather)
      483    0.000    0.000    0.002    0.000 _ufunc_config.py:435(__exit__)
       11    0.000    0.000    0.000    0.000 {built-in method marshal.loads}
      640    0.000    0.000    0.001    0.000 approximation_scheme.py:426(_vec_ind_iter)
      320    0.000    0.000    0.001    0.000 implicitcomponent.py:70(_configure)
     6291    0.000    0.000    0.000    0.000 component.py:368(setup_partials)
      320    0.000    0.000    0.237    0.001 implicitcomponent.py:458(_setup_procs)
      160    0.000    0.000    0.008    0.000 total_drag.py:23(setup)
      640    0.000    0.000    0.060    0.000 _compressed.py:362(_sub_sparse)
      160    0.000    0.000    0.000    0.000 {method 'setPythonContext' of 'petsc4py.PETSc.Mat' objects}
      160    0.000    0.000    0.001    0.000 twodim_base.py:234(diag)
      320    0.000    0.000    0.001    0.000 system.py:1333(_get_approx_scheme)
      160    0.000    0.000    0.001    0.000 {method 'create' of 'petsc4py.PETSc.KSP' objects}
        6    0.000    0.000    0.001    0.000 _special_matrices.py:470(block_diag)
      160    0.000    0.000    0.001    0.000 total_lift.py:34(compute)
      320    0.000    0.000    0.018    0.000 implicitcomponent.py:62(__init__)
      160    0.000    0.000    0.004    0.000 nonlinear_block_gs.py:56(_declare_options)
     1636    0.000    0.000    0.000    0.000 options_dictionary.py:482(__contains__)
        2    0.000    0.000    0.001    0.000 _construct.py:707(block_diag)
2370/2107    0.000    0.000    0.002    0.000 <frozen abc>:121(__subclasscheck__)
      160    0.000    0.000    0.010    0.000 sum_areas.py:25(setup)
        1    0.000    0.000    0.013    0.013 introspection.py:174(_configure_constraint_introspection)
      320    0.000    0.000    0.017    0.000 implicitcomponent.py:484(_setup_vectors)
       25    0.000    0.000    0.001    0.000 {built-in method builtins.eval}
     1288    0.000    0.000    0.001    0.000 shape_base.py:215(_vhstack_dispatcher)
     2262    0.000    0.000    0.000    0.000 {method 'sort' of 'numpy.ndarray' objects}
        1    0.000    0.000    0.013    0.013 trajectory.py:1221(_constraint_report)
      100    0.000    0.000    0.001    0.000 indexer.py:862(shaped_instance)
     1288    0.000    0.000    0.001    0.000 shape_base.py:207(_arrays_for_stack_dispatcher)
     3276    0.000    0.000    0.000    0.000 _compiler.py:426(_get_iscased)
      160    0.000    0.000    0.002    0.000 direct.py:185(_declare_options)
       27    0.000    0.000    0.000    0.000 function_base.py:24(linspace)
      160    0.000    0.000    0.000    0.000 {method 'setPythonContext' of 'petsc4py.PETSc.PC' objects}
      160    0.000    0.000    1.114    0.007 solver.py:591(_iter_initialize)
      160    0.000    0.000    0.001    0.000 non_intersecting_thickness.py:45(compute)
      848    0.000    0.000    0.001    0.000 fromnumeric.py:200(reshape)
      340    0.000    0.000    0.002    0.000 _base.py:1287(_process_toarray_args)
      364    0.000    0.000    0.000    0.000 {built-in method scipy.sparse._sparsetools.expandptr}
     3677    0.000    0.000    0.000    0.000 fromnumeric.py:2974(_prod_dispatcher)
        1    0.000    0.000    0.011    0.011 transcription_base.py:566(configure_objective)
     6291    0.000    0.000    0.000    0.000 system.py:2154(_setup_connections)
      255    0.000    0.000    0.001    0.000 indexer.py:820(_check_bounds)
      320    0.000    0.000    0.001    0.000 complex_step.py:42(add_approximation)
      320    0.000    0.000    0.002    0.000 approximation_scheme.py:136(_init_colored_approximations)
        2    0.000    0.000    0.000    0.000 utils.py:153(compute)
      160    0.000    0.000    0.000    0.000 group.py:3184(_guess_nonlinear)
      320    0.000    0.000    0.002    0.000 eval_mtx.py:156(initialize)
     3232    0.000    0.000    0.000    0.000 fromnumeric.py:2508(_cumsum_dispatcher)
      320    0.000    0.000    0.004    0.000 fromnumeric.py:3832(product)
     3390    0.000    0.000    0.000    0.000 solver.py:307(<listcomp>)
      160    0.000    0.000    0.005    0.000 total_lift.py:23(setup)
      320    0.000    0.000    0.002    0.000 get_vectors.py:30(initialize)
     7907    0.000    0.000    0.000    0.000 system.py:1400(_configure_check)
        1    0.000    0.000    0.006    0.006 pseudospectral_timeseries_output_comp.py:38(setup)
       22    0.000    0.000    0.007    0.000 _construct.py:285(kron)
      165    0.000    0.000    0.000    0.000 system.py:4793(_abs_get_val)
      320    0.000    0.000    0.001    0.000 complex_step.py:33(__init__)
      123    0.000    0.000    0.000    0.000 indexer.py:1409(get_shape)
     1635    0.000    0.000    0.000    0.000 _parser.py:166(__setitem__)
     1616    0.000    0.000    0.000    0.000 proc_allocator.py:50(__init__)
      160    0.000    0.000    0.001    0.000 vortex_mesh.py:279(compute_partials)
      320    0.000    0.000    0.001    0.000 default_vector.py:286(__isub__)
      160    0.000    0.000    0.000    0.000 {method 'setUp' of 'petsc4py.PETSc.Mat' objects}
     1616    0.000    0.000    0.000    0.000 system.py:2699(_local_vector_class)
        4    0.000    0.000    0.001    0.000 interp_bsplines.py:117(get_bspline_mtx)
       35    0.000    0.000    0.000    0.000 {built-in method io.open}
       25    0.000    0.000    0.231    0.009 radau_pseudospectral.py:331(_get_timeseries_var_source)
      160    0.000    0.000    0.009    0.000 fem.py:32(__init__)
      160    0.000    0.000    0.000    0.000 system.py:2670(nonlinear_solver)
      160    0.000    0.000    0.002    0.000 petsc_ksp.py:202(_declare_options)
      320    0.000    0.000    0.000    0.000 approximation_scheme.py:54(__init__)
      160    0.000    0.000    0.001    0.000 units.py:1052(_has_val_mismatch)
      320    0.000    0.000    0.001    0.000 system.py:1406(_get_approx_subjac_keys)
      160    0.000    0.000    0.002    0.000 aerostruct_groups.py:201(initialize)
      320    0.000    0.000    0.000    0.000 default_vector.py:87(_get_data)
     2262    0.000    0.000    0.000    0.000 arraysetops.py:133(_unique_dispatcher)
      160    0.000    0.000    0.070    0.000 nonlinear_block_gs.py:39(_setup_solvers)
      160    0.000    0.000    0.000    0.000 index_tricks.py:785(fill_diagonal)
     2242    0.000    0.000    0.000    0.000 type_check.py:205(_is_type_dispatcher)
      106    0.000    0.000    0.004    0.000 indexer.py:1196(shaped_instance)
     1932    0.000    0.000    0.000    0.000 {built-in method numpy.geterrobj}
      160    0.000    0.000    0.000    0.000 {method 'setType' of 'petsc4py.PETSc.PC' objects}
        1    0.000    0.000    0.002    0.002 total_jac.py:621(_create_in_idx_map)
        1    0.000    0.000    0.016    0.016 transcription_base.py:333(configure_states_discovery)
      320    0.000    0.000    0.002    0.000 fromnumeric.py:3823(_product_dispatcher)
      320    0.000    0.000    0.000    0.000 system.py:2804(_get_static_wrt_matches)
       84    0.000    0.000    0.000    0.000 numeric.py:203(ones_like)
      110    0.000    0.000    0.002    0.000 indexer.py:1025(set_src_shape)
       97    0.000    0.000    0.001    0.000 indexer.py:930(_set_idx_list)
      160    0.000    0.000   21.743    0.136 solver.py:806(_solve_with_cache_check)
      160    0.000    0.000    0.042    0.000 petsc_ksp.py:231(_setup_solvers)
      320    0.000    0.000    0.000    0.000 complex_step.py:148(_get_multiplier)
      222    0.000    0.000    0.000    0.000 indexer.py:718(__init__)
        1    0.000    0.000    0.002    0.002 group.py:4246(_resolve_ambiguous_input_meta)
       10    0.000    0.000    0.000    0.000 {built-in method posix.listdir}
       66    0.000    0.000    0.000    0.000 pathlib.py:56(parse_parts)
      801    0.000    0.000    0.000    0.000 indexer.py:419(_check_bounds)
      160    0.000    0.000    0.001    0.000 solver.py:538(_declare_options)
        2    0.000    0.000    0.006    0.003 utils.py:138(setup)
        2    0.000    0.000    0.007    0.003 driver.py:271(_setup_driver)
     1920    0.000    0.000    0.000    0.000 vector.py:676(set_complex_step_mode)
     1790    0.000    0.000    0.000    0.000 multiarray.py:346(where)
     2240    0.000    0.000    0.000    0.000 type_check.py:678(_common_type_dispatcher)
      160    0.000    0.000    0.000    0.000 {method 'setOperators' of 'petsc4py.PETSc.KSP' objects}
      181    0.000    0.000    0.000    0.000 name_maps.py:162(name2abs_names)
        1    0.000    0.000    0.000    0.000 local_stiff.py:58(compute)
       17    0.000    0.000    0.001    0.000 {built-in method builtins.print}
      160    0.000    0.000    0.011    0.000 nonlinear_block_gs.py:30(__init__)
        1    0.000    0.000    0.000    0.000 pseudospectral_timeseries_output_comp.py:185(compute)
      123    0.000    0.000    0.001    0.000 indexer.py:147(indexed_src_shape)
        7    0.000    0.000    0.000    0.000 {built-in method builtins.compile}
      320    0.000    0.000    0.000    0.000 complex_step.py:68(_get_approx_data)
      160    0.000    0.000    0.001    0.000 total_performance.py:16(initialize)
        1    0.000    0.000    0.000    0.000 transcription_base.py:468(_get_constraint_kwargs)
      160    0.000    0.000   21.743    0.136 solver.py:580(solve)
     1791    0.000    0.000    0.000    0.000 fromnumeric.py:2831(_min_dispatcher)
      332    0.000    0.000    0.000    0.000 vector.py:335(_contains_abs)
       64    0.000    0.000    0.000    0.000 {built-in method posix.stat}
       28    0.000    0.000    0.000    0.000 __init__.py:380(<genexpr>)
       70    0.000    0.000    0.000    0.000 indexer.py:1137(__init__)
      160    0.000    0.000    0.001    0.000 mesh_point_forces.py:30(initialize)
      160    0.000    0.000    0.001    0.000 eval_velocities.py:36(initialize)
        5    0.000    0.000    0.001    0.000 __init__.py:827(__init__)
      165    0.000    0.000    0.001    0.000 system.py:4952(get_val)
     1616    0.000    0.000    0.000    0.000 solver.py:237(_assembled_jac_solver_iter)
      117    0.000    0.000    0.000    0.000 group.py:3135(_get_subsystem)
      640    0.000    0.000    0.000    0.000 general_utils.py:1220(_serial_iter)
      165    0.000    0.000    0.000    0.000 __init__.py:107(read)
      167    0.000    0.000    0.000    0.000 fromnumeric.py:1768(ravel)
      160    0.000    0.000    0.001    0.000 states.py:22(initialize)
      160    0.000    0.000    0.009    0.000 petsc_ksp.py:186(__init__)
        1    0.000    0.000    0.000    0.000 utils.py:112(compute)
        2    0.000    0.000    0.002    0.001 pyoptsparse_driver.py:835(_setup_tot_jac_sparsity)
      160    0.000    0.000    0.000    0.000 wave_drag.py:61(compute)
        2    0.000    0.000    0.019    0.009 problem.py:787(_setup_recording)
      160    0.000    0.000    0.001    0.000 convert_velocity.py:33(initialize)
       11    0.000    0.000    0.000    0.000 {built-in method builtins.__build_class__}
      160    0.000    0.000    0.000    0.000 petsc_ksp.py:221(_assembled_jac_solver_iter)
      160    0.000    0.000    0.000    0.000 {method 'setMonitor' of 'petsc4py.PETSc.KSP' objects}
      160    0.000    0.000    0.001    0.000 fem.py:47(initialize)
      215    0.000    0.000    0.000    0.000 __init__.py:236(matches)
       37    0.000    0.000    0.687    0.019 introspection.py:92(get_promoted_vars)
     1614    0.000    0.000    0.000    0.000 group.py:247(configure)
        4    0.000    0.000    0.000    0.000 arraysetops.py:524(in1d)
        1    0.000    0.000    0.005    0.005 total_jac.py:101(__init__)
      134    0.000    0.000    0.000    0.000 _collections.py:28(parse)
      960    0.000    0.000    0.000    0.000 function_base.py:5168(_delete_dispatcher)
      160    0.000    0.000    0.001    0.000 viscous_drag.py:39(initialize)
      160    0.000    0.000    0.001    0.000 failure_ks.py:36(initialize)
        1    0.000    0.000    0.000    0.000 utils.py:71(compute)
      165    0.000    0.000    0.001    0.000 __init__.py:406(<genexpr>)
       52    0.000    0.000    0.002    0.000 indexer.py:1092(shaped_instance)
      160    0.000    0.000    0.000    0.000 petsc_ksp.py:309(_linearize_children)
       50    0.000    0.000    0.000    0.000 _coo.py:590(isspmatrix_coo)
        1    0.000    0.000    0.289    0.289 group.py:1240(_get_root_vectors)
      165    0.000    0.000    0.001    0.000 __init__.py:101(<genexpr>)
     1097    0.000    0.000    0.000    0.000 fromnumeric.py:2416(_all_dispatcher)
       39    0.000    0.000    0.000    0.000 indexer.py:983(as_array)
       40    0.000    0.000    0.009    0.000 grid_data.py:64(radau_pseudospectral_subsets_and_nodes)
        3    0.000    0.000    0.001    0.000 exec_comp.py:315(_setup_expressions)
        4    0.000    0.000    0.002    0.000 spline_comp.py:83(setup)
      160    0.000    0.000    0.001    0.000 wave_drag.py:35(initialize)
        1    0.000    0.000    0.000    0.000 group.py:1786(_resolve_group_input_defaults)
        1    0.000    0.000    0.000    0.000 dynamics.py:135(compute_partials)
        6    0.000    0.000    0.001    0.000 phase.py:1961(interpolate)
        1    0.000    0.000    0.001    0.001 pseudospectral_base.py:124(configure_states)
        1    0.000    0.000    0.014    0.014 state_interp_comp.py:55(configure_io)
     1450    0.000    0.000    0.000    0.000 solver.py:401(_linearize_children)
        6    0.000    0.000    0.000    0.000 _special_matrices.py:534(<listcomp>)
      160    0.000    0.000    0.000    0.000 petsc_ksp.py:321(_linearize)
      134    0.000    0.000    0.000    0.000 __init__.py:450(_replace)
      328    0.000    0.000    0.000    0.000 group.py:2980(<listcomp>)
        6    0.000    0.000    0.000    0.000 _coo.py:532(_sum_duplicates)
     1450    0.000    0.000    0.000    0.000 solver.py:395(_linearize)
       64    0.000    0.000    0.000    0.000 pathlib.py:536(__str__)
       66    0.000    0.000    0.000    0.000 pathlib.py:484(_parse_args)
      320    0.000    0.000    0.001    0.000 _methods.py:47(_sum)
      320    0.000    0.000    0.000    0.000 complex_step.py:164(_transform_result)
        1    0.000    0.000    0.000    0.000 utils.py:342(gen_rect_mesh)
       15    0.000    0.000    0.000    0.000 <frozen importlib._bootstrap_external>:1604(find_spec)
      474    0.000    0.000    0.000    0.000 {built-in method __new__ of type object at 0x7f08a97cfe60}
        1    0.000    0.000    0.001    0.001 control_group.py:257(compute_partials)
        4    0.000    0.000    0.000    0.000 arrayprint.py:934(fillFormat)
      160    0.000    0.000    0.000    0.000 functionals.py:19(initialize)
      160    0.000    0.000    0.000    0.000 displacement_transfer_group.py:13(initialize)
      160    0.000    0.000    0.000    0.000 fromnumeric.py:588(transpose)
        2    0.000    0.000    0.000    0.000 exec_comp.py:1046(compute_partials)
        8    0.000    0.000    0.002    0.000 parameter_comp.py:36(add_parameter)
      160    0.000    0.000    0.000    0.000 sum_areas.py:22(initialize)
      320    0.000    0.000    0.000    0.000 general_utils.py:1249(__iter__)
       31    0.000    0.000    0.001    0.000 __init__.py:930(read_text)
      160    0.000    0.000    0.000    0.000 aerostruct_groups.py:103(initialize)
        5    0.000    0.000    0.000    0.000  power_eff:1(<module>)
      150    0.000    0.000    0.000    0.000 indexer.py:492(__init__)
      102    0.000    0.000    0.000    0.000 indexer.py:938(__call__)
       11    0.000    0.000    0.000    0.000 {built-in method io.open_code}
        1    0.000    0.000    0.003    0.003 utils.py:97(setup)
       25    0.000    0.000    0.001    0.000 options.py:704(__init__)
        1    0.000    0.000    0.002    0.002 utils.py:56(setup)
      160    0.000    0.000    0.000    0.000 spatial_beam_states.py:15(initialize)
      160    0.000    0.000    0.000    0.000 spatial_beam_functionals.py:17(initialize)
      160    0.000    0.000    0.000    0.000 solver.py:363(_mpi_print_header)
        8    0.000    0.000    0.001    0.000 _compressed.py:365(multiply)
      160    0.000    0.000    0.000    0.000 collocation_points.py:41(initialize)
        1    0.000    0.000    0.000    0.000 {method 'readlines' of '_io._IOBase' objects}
        1    0.000    0.000    0.004    0.004 local_stiff_permuted.py:31(setup)
       97    0.000    0.000    0.001    0.000 indexer.py:919(__init__)
      119    0.000    0.000    0.001    0.000 configinfo.py:66(_var_added)
      160    0.000    0.000    0.000    0.000 {method 'setGMRESRestart' of 'petsc4py.PETSc.KSP' objects}
      160    0.000    0.000    0.000    0.000 total_lift_drag.py:35(initialize)
        6    0.000    0.000    0.000    0.000 _interpolate.py:676(_call_linear)
        1    0.000    0.000    0.001    0.001 continuity_comp.py:83(_configure_control_continuity)
      160    0.000    0.000    0.000    0.000 vortex_mesh.py:32(initialize)
      160    0.000    0.000    0.000    0.000 breguet_range.py:44(initialize)
      160    0.000    0.000    0.000    0.000 non_intersecting_thickness.py:29(initialize)
      160    0.000    0.000    0.000    0.000 compute_transformation_matrix.py:37(initialize)
      224    0.000    0.000    0.000    0.000 indexer.py:600(_check_bounds)
      160    0.000    0.000    0.000    0.000 moment_coefficient.py:41(initialize)
      160    0.000    0.000    0.000    0.000 horseshoe_circulations.py:29(initialize)
      110    0.000    0.000    0.000    0.000 indexer.py:1060(_check_bounds)
      160    0.000    0.000    0.000    0.000 displacement_transfer.py:37(initialize)
      160    0.000    0.000    0.000    0.000 load_transfer.py:28(initialize)
        7    0.000    0.000    0.000    0.000 system.py:2906(add_design_var)
      160    0.000    0.000    0.000    0.000 aerostruct_groups.py:144(initialize)
      160    0.000    0.000    0.000    0.000 equilibrium.py:48(initialize)
        1    0.000    0.000    0.005    0.005 control_group.py:84(_configure_controls)
       50    0.000    0.000    0.000    0.000 indexer.py:640(shaped_instance)
      160    0.000    0.000    0.000    0.000 mtx_rhs.py:37(initialize)
       37    0.000    0.000    0.000    0.000 functools.py:35(update_wrapper)
      160    0.000    0.000    0.000    0.000 center_of_gravity.py:44(initialize)
      160    0.000    0.000    0.000    0.000 total_lift.py:20(initialize)
      160    0.000    0.000    0.000    0.000 panel_forces_surf.py:25(initialize)
      308    0.000    0.000    0.000    0.000 indexer.py:947(<genexpr>)
      160    0.000    0.000    0.000    0.000 total_drag.py:20(initialize)
      160    0.000    0.000    0.000    0.000 panel_forces.py:34(initialize)
       12    0.000    0.000    0.001    0.000 <frozen importlib._bootstrap>:1056(_find_spec)
        6    0.000    0.000    0.000    0.000 _interpolate.py:487(__init__)
      160    0.000    0.000    0.000    0.000 wing_weight_loads.py:33(initialize)
        2    0.000    0.000    4.916    2.458 problem.py:1003(final_setup)
      160    0.000    0.000    0.000    0.000 lift_coeff_2D.py:35(initialize)
      142    0.000    0.000    0.001    0.000 indexer.py:1108(<genexpr>)
      160    0.000    0.000    0.000    0.000 geometry.py:40(initialize)
      160    0.000    0.000    0.000    0.000 solve_matrix.py:27(initialize)
      160    0.000    0.000    0.000    0.000 vonmises_tube.py:27(initialize)
      160    0.000    0.000    0.000    0.000 total_loads.py:30(initialize)
        1    0.000    0.000    0.002    0.002 collocation_comp.py:44(configure_io)
        1    0.000    0.000    0.001    0.001 transform.py:14(setup)
       31    0.000    0.000    0.001    0.000 __init__.py:945(_normalized_name)
        1    0.000    0.000    0.000    0.000 control_group.py:219(compute)
      160    0.000    0.000    0.000    0.000 lift_drag.py:29(initialize)
      160    0.000    0.000    0.000    0.000 disp.py:29(initialize)
    38/37    0.000    0.000    0.001    0.000 {built-in method builtins.exec}
      362    0.000    0.000    0.000    0.000 fromnumeric.py:1491(squeeze)
      160    0.000    0.000    0.000    0.000 create_rhs.py:25(initialize)
        1    0.000    0.000    0.001    0.001 geometry_mesh_transformations.py:850(setup)
       16    0.000    0.000    0.000    0.000 system.py:5073(set_val)
      165    0.000    0.000    0.001    0.000 __init__.py:402(<genexpr>)
       38    0.000    0.000    0.000    0.000 introspection.py:14(classify_var)
       25    0.000    0.000    0.001    0.000 phase.py:1413(_add_timeseries_output)
      848    0.000    0.000    0.000    0.000 fromnumeric.py:195(_reshape_dispatcher)
       11    0.000    0.000    0.001    0.000 <frozen importlib._bootstrap_external>:1007(get_code)
      320    0.000    0.000    0.000    0.000 approximation_scheme.py:79(_reset)
        1    0.000    0.000    0.081    0.081 group.py:1354(_top_level_post_connections)
       11    0.000    0.000    0.000    0.000 {method 'read' of '_io.BufferedReader' objects}
        1    0.000    0.000    0.000    0.000 dynamics.py:114(compute)
      494    0.000    0.000    0.000    0.000 {method 'endswith' of 'str' objects}
        6    0.000    0.000    0.000    0.000 default_vector.py:102(_create_data)
       19    0.000    0.000    0.012    0.001 introspection.py:1177(get_source_metadata)
        4    0.000    0.000    0.002    0.000 interp_bsplines.py:71(evaluate_vectorized)
      328    0.000    0.000    0.000    0.000 group.py:2981(<lambda>)
       25    0.000    0.000    0.000    0.000 {method '__exit__' of '_io._IOBase' objects}
       22    0.000    0.000    0.000    0.000 <frozen importlib._bootstrap_external>:437(cache_from_source)
       22    0.000    0.000    0.001    0.000 _construct.py:229(eye)
        6    0.000    0.000    0.000    0.000 indexing.py:7(get_src_indices_by_row)
        1    0.000    0.000    0.003    0.003 total_jac.py:856(_get_sol2jac_map)
       34    0.000    0.000    0.000    0.000 system.py:3370(_check_voi_meta_sizes)
       10    0.000    0.000    0.000    0.000 system.py:3037(add_response)
        1    0.000    0.000  627.172  627.172 problem.py:1886(compute_totals)
       48    0.000    0.000    0.000    0.000 misc.py:102(__call__)
      362    0.000    0.000    0.000    0.000 {method 'squeeze' of 'numpy.ndarray' objects}
       16    0.000    0.000    0.000    0.000 shape_base.py:512(expand_dims)
        1    0.000    0.000    0.014    0.014 control_group.py:341(configure_io)
        3    0.000    0.000    0.002    0.001 exec_comp.py:660(_setup_partials)
       31    0.000    0.000    0.001    0.000 __init__.py:400(_from_text_for)
       32    0.000    0.000    0.002    0.000 _itertools.py:4(unique_everseen)
        4    0.000    0.000    0.000    0.000 interp.py:122(__init__)
    17/10    0.000    0.000    0.002    0.000 <frozen importlib._bootstrap>:1167(_find_and_load)
      160    0.000    0.000    0.000    0.000 petsc_ksp.py:138(__init__)
      430    0.000    0.000    0.000    0.000 __init__.py:256(<genexpr>)
       14    0.000    0.000    0.000    0.000 units.py:359(__div__)
        1    0.000    0.000    0.001    0.001 trajectory.py:365(_configure_parameters)
        1    0.000    0.000    0.000    0.000 geometry_mesh_transformations.py:921(compute)
       90    0.000    0.000    0.000    0.000 <frozen importlib._bootstrap_external>:126(_path_join)
       21    0.000    0.000    0.000    0.000 indepvarcomp.py:264(add_output)
     13/6    0.000    0.000    0.002    0.000 <frozen importlib._bootstrap>:1122(_find_and_load_unlocked)
       62    0.000    0.000    0.000    0.000 __init__.py:877(normalize)
       27    0.000    0.000    0.000    0.000 units.py:1002(unit_conversion)
       90    0.000    0.000    0.000    0.000 <frozen importlib._bootstrap_external>:128(<listcomp>)
      134    0.000    0.000    0.000    0.000 __init__.py:193(__init__)
        1    0.000    0.000    0.000    0.000 state_interp_comp.py:172(_compute_radau)
        2    0.000    0.000    0.009    0.004 pyoptsparse_driver.py:280(_setup_driver)
       16    0.000    0.000    0.000    0.000 introspection.py:1064(_get_targets_metadata)
        1    0.000    0.000    0.000    0.000 total_jac.py:558(_get_dict_J)
      160    0.000    0.000    0.000    0.000 {method 'getPC' of 'petsc4py.PETSc.KSP' objects}
       64    0.000    0.000    0.000    0.000 pathlib.py:523(_format_parsed_parts)
        1    0.000    0.000    0.000    0.000 state_interp_comp.py:222(_compute_partials_radau)
        3    0.000    0.000    0.000    0.000 exec_comp.py:724(_setup_vectors)
        2    0.000    0.000    0.000    0.000 total_jac.py:963(_get_tuple_map)
       21    0.000    0.000    0.000    0.000 group.py:3914(<listcomp>)
       32    0.000    0.000    0.000    0.000 pathlib.py:530(_make_child)
      480    0.000    0.000    0.000    0.000 contextlib.py:65(_recreate_cm)
        1    0.000    0.000    4.730    4.730 group.py:1199(_final_setup)
        1    0.000    0.000    0.014    0.014 control_group.py:155(configure_io)
        8    0.000    0.000    0.000    0.000 options.py:240(__init__)
        2    0.000    0.000    0.098    0.049 driver.py:871(_update_voi_meta)
      134    0.000    0.000    0.000    0.000 __init__.py:221(_for)
       20    0.000    0.000    0.001    0.000 indepvarcomp.py:113(add_output)
      496    0.000    0.000    0.000    0.000 _csr.py:164(tocsr)
       18    0.000    0.000    0.000    0.000 {built-in method scipy.sparse._sparsetools.csr_matvec}
      160    0.000    0.000    0.000    0.000 {method 'setPCSide' of 'petsc4py.PETSc.KSP' objects}
       27    0.000    0.000    0.000    0.000 units.py:477(conversion_tuple_to)
     12/4    0.000    0.000    0.000    0.000 arrayprint.py:789(recurser)
        1    0.000    0.000    0.001    0.001 geometry_mesh_transformations.py:440(setup)
      134    0.000    0.000    0.000    0.000 __init__.py:440(_make)
      328    0.000    0.000    0.000    0.000 {built-in method sys.intern}
      324    0.000    0.000    0.000    0.000 function_base.py:1320(_diff_dispatcher)
      176    0.000    0.000    0.000    0.000 __init__.py:118(valid)
        1    0.000    0.000    0.001    0.001 geometry_mesh.py:54(setup)
        1    0.000    0.000    0.000    0.000 continuity_comp.py:260(_compute_control_continuity)
       31    0.000    0.000    0.000    0.000 _functools.py:89(pass_none)
        3    0.000    0.000    0.000    0.000 {method 'write' of '_io.TextIOWrapper' objects}
        2    0.000    0.000    0.000    0.000 shape_base.py:1067(kron)
      270    0.000    0.000    0.000    0.000 {built-in method builtins.vars}
        6    0.000    0.000    0.001    0.000 _extract.py:12(find)
        6    0.000    0.000    0.000    0.000 misc.py:46(reshape_val)
       36    0.000    0.000    0.000    0.000 <frozen posixpath>:140(basename)
      123    0.000    0.000    0.000    0.000 indexer.py:1398(__init__)
        1    0.000    0.000    0.000    0.000 time_comp.py:73(compute)
        2    0.000    0.000    0.000    0.000 driver.py:96(__init__)
        1    0.000    0.000    0.001    0.001 transcription_base.py:270(configure_parameters)
        1    0.000    0.000   47.295   47.295 problem.py:853(setup)
       38    0.000    0.000    3.788    0.100 fromnumeric.py:1881(nonzero)
       34    0.000    0.000    0.002    0.000 indexer.py:1266(_check_bounds)
       22    0.000    0.000    0.001    0.000 _construct.py:26(spdiags)
       97    0.000    0.000    0.000    0.000 pathlib.py:239(splitroot)
      110    0.000    0.000    0.000    0.000 indexer.py:1055(_check_src_shape)
       34    0.000    0.000    0.000    0.000 phase.py:1710(classify_var)
       30    0.000    0.000    0.000    0.000 numerictypes.py:357(issubdtype)
        1    0.000    0.000    0.001    0.001 weight.py:29(setup)
        7    0.000    0.000    0.000    0.000 function_base.py:5562(append)
       11    0.000    0.000    0.000    0.000 {method 'read' of '_io.TextIOWrapper' objects}
       31    0.000    0.000    0.000    0.000 pathlib.py:1053(read_text)
       11    0.000    0.000    0.000    0.000 <frozen importlib._bootstrap>:493(_init_module_attrs)
        1    0.000    0.000    0.001    0.001 time_comp.py:47(configure_io)
        5    0.000    0.000    0.000    0.000 pyoptsparse_driver.py:810(_get_ordered_nl_responses)
        4    0.000    0.000    0.000    0.000 options.py:352(__init__)
        1    0.000    0.000    0.000    0.000 collocation_comp.py:160(compute_partials)
    11/10    0.000    0.000    0.002    0.000 <frozen importlib._bootstrap>:666(_load_unlocked)
        8    0.000    0.000    0.000    0.000 units.py:408(__pow__)
       14    0.000    0.000    0.000    0.000 units.py:100(__sub__)
        1    0.000    0.000    0.007    0.007 problem.py:203(__init__)
        1    0.000    0.000    0.001    0.001 dynamics.py:32(setup)
       13    0.000    0.000    0.000    0.000 <frozen importlib._bootstrap>:179(_get_module_lock)
      329    0.000    0.000    0.000    0.000 system.py:1321(initialize)
       31    0.000    0.000    0.000    0.000 <frozen genericpath>:121(_splitext)
        7    0.000    0.000    0.000    0.000 indepvarcomp.py:58(initialize)
        1    0.000    0.000    0.000    0.000 collocation_comp.py:138(compute)
      128    0.000    0.000    0.000    0.000 {method 'indices' of 'slice' objects}
        6    0.000    0.000    0.000    0.000 vector.py:704(_get_local_views)
        1    0.000    0.000    0.013    0.013 trajectory.py:1235(_print_constraints)
        1    0.000    0.000    0.042    0.042 introspection.py:444(configure_states_introspection)
        6    0.000    0.000    0.000    0.000 index_tricks.py:34(ix_)
       31    0.000    0.000    0.000    0.000 __init__.py:957(_name_from_stem)
        1    0.000    0.000    0.001    0.001 geometry_mesh_transformations.py:146(setup)
       83    0.000    0.000    0.000    0.000 constants.py:89(__hash__)
        1    0.000    0.000    0.000    0.000 section_properties_tube.py:50(compute)
        1    0.000    0.000    0.000    0.000 utils.py:295(taper)
        6    0.000    0.000    0.000    0.000 _methods.py:90(_clip)
        6    0.000    0.000    0.000    0.000 _util.py:206(_asarray_validated)
       31    0.000    0.000    0.002    0.000 __init__.py:634(entry_points)
        3    0.000    0.000    0.000    0.000 blas.py:326(_get_funcs)
       60    0.000    0.000    0.000    0.000 numerictypes.py:283(issubclass_)
       34    0.000    0.000    0.000    0.000 pathlib.py:504(_from_parts)
        1    0.000    0.000    0.000    0.000 geometry_mesh_transformations.py:641(setup)
       22    0.000    0.000    0.000    0.000 <frozen importlib._bootstrap_external>:132(_path_split)
       12    0.000    0.000    0.001    0.000 <frozen importlib._bootstrap_external>:1464(_get_spec)
        1    0.000    0.000    0.000    0.000 inspect.py:2330(_signature_from_function)
        1    0.000    0.000    0.001    0.001 geometry_group.py:23(setup)
       11    0.000    0.000    0.000    0.000 exec_comp.py:896(_exec)
        4    0.000    0.000    0.000    0.000 arrayprint.py:523(_array2string)
      160    0.000    0.000    0.000    0.000 {method 'setInitialGuessNonzero' of 'petsc4py.PETSc.KSP' objects}
        4    0.000    0.000    0.000    0.000 _compiler.py:241(_optimize_charset)
       21    0.000    0.000    0.000    0.000 group.py:3915(<listcomp>)
        6    0.000    0.000    0.006    0.001 driver.py:1149(_get_static_coloring)
        3    0.000    0.000    0.000    0.000 group.py:2776(promotes)
        1    0.000    0.000   22.616   22.616 problem.py:600(run_model)
        3    0.000    0.000    0.000    0.000 exec_comp.py:775(compute)
        1    0.000    0.000    0.000    0.000 geometry_mesh_transformations.py:238(setup)
        3    0.000    0.000    0.000    0.000 functools.py:981(__get__)
        4    0.000    0.000    0.000    0.000 arrayprint.py:452(_get_format_function)
        1    0.000    0.000    0.000    0.000 geometry_mesh_transformations.py:51(compute)
       32    0.000    0.000    0.000    0.000 transcription_base.py:643(_get_ode)
        4    0.000    0.000    0.002    0.000 spline_comp.py:155(compute)
        8    0.000    0.000    0.000    0.000 arrayprint.py:1018(__call__)
        4    0.000    0.000    0.000    0.000 radau_pseudospectral.py:451(get_parameter_connections)
        1    0.000    0.000    0.000    0.000 transform.py:41(compute)
       10    0.000    0.000    0.000    0.000 group.py:268(set_input_defaults)
       11    0.000    0.000    0.000    0.000 <frozen importlib._bootstrap_external>:778(spec_from_file_location)
       32    0.000    0.000    0.004    0.000 __init__.py:1037(<genexpr>)
      160    0.000    0.000    0.000    0.000 group.py:3220(guess_nonlinear)
      362    0.000    0.000    0.000    0.000 fromnumeric.py:1487(_squeeze_dispatcher)
        8    0.000    0.000    0.000    0.000 reports_system.py:144(register_report)
       31    0.000    0.000    0.000    0.000 <frozen posixpath>:117(splitext)
        9    0.000    0.000    0.002    0.000 __init__.py:196(load)
        2    0.000    0.000    0.000    0.000 coloring.py:495(_config_check_msgs)
      121    0.000    0.000    0.000    0.000 {method 'rfind' of 'str' objects}
        4    0.000    0.000    0.000    0.000 arrayprint.py:561(array2string)
        1    0.000    0.000    0.000    0.000 continuity_comp.py:299(compute_partials)
        6    0.000    0.000    0.000    0.000 exec_comp.py:566(_parse_for_names)
        8    0.000    0.000    0.000    0.000 problem.py:535(set_val)
       18    0.000    0.000    0.001    0.000 phase.py:1295(add_timeseries_output)
        1    0.000    0.000    0.003    0.003 pseudospectral_base.py:375(configure_defects)
       11    0.000    0.000    0.000    0.000 <frozen importlib._bootstrap_external>:1127(get_data)
        3    0.000    0.000    0.000    0.000 blas.py:259(find_best_blas_type)
       18    0.000    0.000    0.000    0.000 units.py:42(__getitem__)
        1    0.000    0.000    0.001    0.001 dynamics.py:82(setup)
       81    0.000    0.000    0.000    0.000 constants.py:73(__eq__)
      160    0.000    0.000    0.000    0.000 system.py:2677(linear_solver)
        7    0.000    0.000    0.000    0.000 indepvarcomp.py:210(_solve_nonlinear)
      208    0.000    0.000    0.000    0.000 <frozen _collections_abc>:409(__subclasshook__)
      167    0.000    0.000    0.000    0.000 fromnumeric.py:1764(_ravel_dispatcher)
      160    0.000    0.000    0.000    0.000 twodim_base.py:230(_diag_dispatcher)
       33    0.000    0.000    0.000    0.000 pathlib.py:868(__new__)
       13    0.000    0.000    0.000    0.000 <frozen importlib._bootstrap>:125(release)
       39    0.000    0.000    0.000    0.000 {method 'splitlines' of 'str' objects}
        1    0.000    0.000    0.002    0.002 phase.py:1766(setup)
    11/10    0.000    0.000    0.001    0.000 <frozen importlib._bootstrap_external>:934(exec_module)
        1    0.000    0.000    0.000    0.000 dynamics.py:192(compute)
       26    0.000    0.000    0.000    0.000 exec_comp.py:1119(__setitem__)
        1    0.000    0.000    0.004    0.004 radau_pseudospectral.py:207(configure_defects)
       13    0.000    0.000    0.000    0.000 <frozen importlib._bootstrap>:100(acquire)
        1    0.000    0.000    0.031    0.031 introspection.py:395(configure_time_introspection)
       31    0.000    0.000    0.000    0.000 _functools.py:99(wrapper)
        1    0.000    0.000    0.014    0.014 pseudospectral_base.py:262(configure_ode)
       31    0.000    0.000    0.000    0.000 __init__.py:404(_from_text)
        1    0.000    0.000    0.000    0.000 transcription_base.py:94(configure_time)
      160    0.000    0.000    0.000    0.000 fromnumeric.py:584(_transpose_dispatcher)
       12    0.000    0.000    0.000    0.000 arrayprint.py:984(<genexpr>)
       14    0.000    0.000    0.000    0.000 units.py:380(<listcomp>)
        1    0.000    0.000    0.000    0.000 structural_cg.py:28(setup)
        1    0.000    0.000    0.000    0.000 geometry_mesh_transformations.py:282(compute)
        3    0.000    0.000    0.000    0.000 digraph.py:316(__init__)
       26    0.000    0.000    0.000    0.000 units.py:238(__init__)
        1    0.000    0.000    0.000    0.000 opt_report.py:1(<module>)
        3    0.000    0.000    0.001    0.000 exec_comp.py:308(setup)
        1    0.000    0.000    0.000    0.000 decorators.py:1041(signature)
        1    0.000    0.000    0.014    0.014 trajectory.py:953(configure)
        7    0.000    0.000    0.001    0.000 indepvarcomp.py:26(__init__)
       10    0.000    0.000    0.004    0.000 file_utils.py:260(_eps_get)
       11    0.000    0.000    0.001    0.000 <frozen importlib._bootstrap_external>:727(_compile_bytecode)
       10    0.000    0.000    0.000    0.000 group.py:1809(<listcomp>)
        6    0.000    0.000    0.000    0.000 {method 'reduceat' of 'numpy.ufunc' objects}
       31    0.000    0.000    0.000    0.000 pathlib.py:1036(open)
        4    0.000    0.000    0.000    0.000 _base.py:844(nonzero)
       33    0.000    0.000    0.000    0.000 <frozen importlib._bootstrap_external>:84(_unpack_uint32)
        1    0.000    0.000    0.000    0.000 inspect.py:2425(_signature_from_callable)
        4    0.000    0.000    0.000    0.000 arrayprint.py:907(__init__)
       11    0.000    0.000    0.000    0.000 <frozen importlib._bootstrap>:566(module_from_spec)
        1    0.000    0.000    0.228    0.228 introspection.py:366(configure_parameters_introspection)
       31    0.000    0.000    0.000    0.000 __init__.py:795(joinpath)
       36    0.000    0.000    0.000    0.000 indexer.py:1172(copy)
        4    0.000    0.000    0.000    0.000 arrayprint.py:403(_get_formatdict)
        1    0.000    0.000    0.006    0.006 reports_system.py:601(_load_report_plugins)
        7    0.000    0.000    0.000    0.000 indepvarcomp.py:101(_configure_check)
      148    0.000    0.000    0.000    0.000 indexer.py:733(__call__)
        1    0.000    0.000    0.028    0.028 introspection.py:297(configure_controls_introspection)
       31    0.000    0.000    0.000    0.000 _collections.py:20(__missing__)
        2    0.000    0.000    0.000    0.000 coloring.py:447(_check_config_total)
       81    0.000    0.000    0.000    0.000 <frozen importlib._bootstrap>:244(_verbose_message)
       49    0.000    0.000    0.000    0.000 indexer.py:802(flat)
        9    0.000    0.000    0.000    0.000 system.py:3230(add_constraint)
        2    0.000    0.000    0.000    0.000 options.py:18(__init__)
        6    0.000    0.000    0.000    0.000 _polyint.py:114(_set_yi)
        1    0.000    0.000    0.000    0.000 transcription_base.py:348(configure_states)
       57    0.000    0.000    0.000    0.000 <frozen importlib._bootstrap_external>:140(_path_stat)
        1    0.000    0.000    0.000    0.000 introspection.py:795(configure_timeseries_expr_introspection)
       16    0.000    0.000    0.000    0.000 {built-in method numpy.core._multiarray_umath.dragon4_positional}
       27    0.000    0.000    0.000    0.000 <frozen importlib._bootstrap_external>:150(_path_is_mode_type)
      206    0.000    0.000    0.000    0.000 {method 'rstrip' of 'str' objects}
        2    0.000    0.000    0.006    0.003 coloring.py:384(load)
        1    0.000    0.000    0.000    0.000 aero_oas.py:231(compute)
       31    0.000    0.000    0.000    0.000 __init__.py:99(section_pairs)
      211    0.000    0.000    0.000    0.000 {built-in method posix.fspath}
        1    0.000    0.000    0.000    0.000 geometry_mesh_transformations.py:174(compute)
        4    0.000    0.000    0.000    0.000 phase.py:116(add_state)
        1    0.000    0.000    0.043    0.043 radau_pseudospectral.py:166(configure_ode)
        3    0.000    0.000    0.000    0.000 exec_comp.py:122(__init__)
       17    0.000    0.000    0.000    0.000 <frozen codecs>:319(decode)
        1    0.000    0.000    0.000    0.000 <frozen posixpath>:421(_joinrealpath)
        1    0.000    0.000    0.000    0.000 debug.py:1(<module>)
        1    0.000    0.000    0.000    0.000 utils.py:636(generate_mesh)
       80    0.000    0.000    0.000    0.000 general_utils.py:976(_src_name_iter)
       16    0.000    0.000    0.000    0.000 system.py:5693(_get_var_meta)
        1    0.000    0.000    0.000    0.000 tube_group.py:15(setup)
       17    0.000    0.000    0.000    0.000 general_utils.py:119(determine_adder_scaler)
       16    0.000    0.000    0.000    0.000 <frozen importlib._bootstrap_external>:1421(_path_importer_cache)
        1    0.000    0.000    0.000    0.000 phase.py:1188(add_path_constraint)
       20    0.000    0.000    0.000    0.000 introspection.py:118(get_targets)
       14    0.000    0.000    0.000    0.000 _compiler.py:465(_get_charset_prefix)
       11    0.000    0.000    0.000    0.000 <frozen importlib._bootstrap_external>:642(_classify_pyc)
      160    0.000    0.000    0.000    0.000 index_tricks.py:781(_fill_diagonal_dispatcher)
        1    0.000    0.000    0.000    0.000 get_oas_surface.py:5(get_OAS_surface)
        1    0.000    0.000    0.000    0.000 decorators.py:851(compile)
      164    0.000    0.000    0.000    0.000 group.py:226(setup)
       32    0.000    0.000    0.000    0.000 functools.py:65(wraps)
        6    0.000    0.000    0.000    0.000 _polyint.py:106(_reshape_yi)
        3    0.000    0.000    0.000    0.000 exec_comp.py:535(_compile_exprs)
        1    0.000    0.000    0.000    0.000 phase.py:58(__init__)
        4    0.000    0.000    0.000    0.000 problem.py:470(get_val)
        5    0.000    0.000    0.000    0.000 __init__.py:815(mtime)
        1    0.000    0.000    0.003    0.003 local_stiff_transformed.py:10(setup)
        5    0.000    0.000    0.000    0.000 __init__.py:798(children)
        4    0.000    0.000    0.000    0.000 arrayprint.py:506(wrapper)
        1    0.000    0.000    0.000    0.000 decorators.py:899(assemble)
        1    0.000    0.000    0.000    0.000 section_properties_tube.py:34(setup)
        1    0.000    0.000    0.000    0.000 length.py:12(setup)
        1    0.000    0.000    0.000    0.000 tokenize.py:392(open)
        1    0.000    0.000    0.000    0.000 geometry_mesh_transformations.py:482(compute)
        9    0.000    0.000    0.000    0.000 __init__.py:358(__getitem__)
       11    0.000    0.000    0.000    0.000 <frozen importlib._bootstrap_external>:1599(_get_spec)
        6    0.000    0.000    0.000    0.000 {method 'argsort' of 'numpy.ndarray' objects}
        6    0.000    0.000    0.000    0.000 {method 'searchsorted' of 'numpy.ndarray' objects}
        1    0.000    0.000    0.014    0.014 pseudospectral_base.py:106(configure_controls)
        1    0.000    0.000    0.000    0.000 scaling_report.py:1(<module>)
        1    0.000    0.000    0.011    0.011 radau_pseudospectral.py:36(init_grid)
        6    0.000    0.000    0.000    0.000 _special_matrices.py:536(<listcomp>)
        6    0.000    0.000    0.000    0.000 exec_comp.py:556(_parse_for_out_vars)
        4    0.000    0.000    0.000    0.000 _coo.py:320(toarray)
        4    0.000    0.000    0.000    0.000 arrayprint.py:64(_make_options_dict)
        4    0.000    0.000    0.000    0.000 spline_comp.py:43(_declare_options)
       32    0.000    0.000    0.000    0.000 pathlib.py:515(_from_parsed_parts)
        6    0.000    0.000    0.000    0.000 _special_matrices.py:541(<listcomp>)
        1    0.000    0.000    0.109    0.109 group.py:1390(_top_level_post_sizes)
       12    0.000    0.000    0.000    0.000 system.py:5631(convert_from_units)
        4    0.000    0.000    0.000    0.000 interp_algorithm.py:53(__init__)
        3    0.000    0.000    0.000    0.000 lapack.py:881(get_lapack_funcs)
        1    0.000    0.000    0.000    0.000 compute_nodes.py:28(setup)
        1    0.000    0.000    0.000    0.000 utils.py:170(sweep)
        2    0.000    0.000    0.000    0.000 phase.py:415(add_control)
        1    0.000    0.000    0.000    0.000 weight.py:57(compute)
       10    0.000    0.000    0.000    0.000 group.py:1764(<listcomp>)
        2    0.000    0.000    0.016    0.008 driver.py:543(_setup_recording)
        1    0.000    0.000    0.001    0.001 local_stiff.py:36(setup)
        1    0.000    0.000   22.490   22.490 system.py:4409(run_solve_nonlinear)
        1    0.000    0.000    0.000    0.000 geometry_mesh_transformations.py:582(setup)
        9    0.000    0.000    0.000    0.000 <frozen posixpath>:71(join)
        1    0.000    0.000    0.001    0.001 continuity_comp.py:419(_configure_control_continuity)
        4    0.000    0.000    0.000    0.000 <frozen importlib._bootstrap_external>:1559(__init__)
       11    0.000    0.000    0.000    0.000 <frozen importlib._bootstrap_external>:567(_get_cached)
        4    0.000    0.000    0.000    0.000 phase.py:898(add_parameter)
       33    0.000    0.000    0.000    0.000 pathlib.py:546(__fspath__)
       23    0.000    0.000    0.000    0.000 indexer.py:778(as_array)
        1    0.000    0.000    0.000    0.000 transcription_base.py:155(setup_controls)
       50    0.000    0.000    0.000    0.000 exec_comp.py:1116(__getitem__)
        1    0.000    0.000    0.010    0.010 introspection.py:700(configure_timeseries_output_glob_expansion)
       18    0.000    0.000    0.000    0.000 <frozen _collections_abc>:78(_check_methods)
        4    0.000    0.000    0.000    0.000 <frozen importlib._bootstrap_external>:1408(_path_hooks)
        1    0.000    0.000    0.000    0.000 problem.py:557(_set_initial_conditions)
        1    0.000    0.000    0.001    0.001 aero_oas.py:41(setup)
        1    0.000    0.000    0.000    0.000 geometry_mesh_transformations.py:775(setup)
       73    0.000    0.000    0.000    0.000 configinfo.py:95(<lambda>)
       19    0.000    0.000    0.000    0.000 __init__.py:478(<genexpr>)
       10    0.000    0.000    0.000    0.000 __init__.py:375(select)
        4    0.000    0.000    0.002    0.000 interp.py:384(_evaluate_spline)
        8    0.000    0.000    0.000    0.000 {built-in method posix.lstat}
        1    0.000    0.000    0.000    0.000 aero_oas.py:264(compute)
       13    0.000    0.000    0.000    0.000 <frozen importlib._bootstrap>:169(__enter__)
        5    0.000    0.000    0.000    0.000 __init__.py:848(search)
        3    0.000    0.000    0.000    0.000 radau_pseudospectral.py:487(_requires_continuity_constraints)
    28/16    0.000    0.000    0.001    0.000 <frozen importlib._bootstrap>:233(_call_with_frames_removed)
       19    0.000    0.000    0.000    0.000 general_utils.py:1002(_src_or_alias_item_iter)
       42    0.000    0.000    0.000    0.000 contextlib.py:431(__exit__)
        1    0.000    0.000    0.000    0.000 geometry_mesh_transformations.py:685(compute)
       49    0.000    0.000    0.000    0.000 <frozen importlib._bootstrap>:1032(__exit__)
        6    0.000    0.000    0.000    0.000 _polyint.py:58(__call__)
        7    0.000    0.000    0.000    0.000 system.py:2869(_create_indexer)
        6    0.000    0.000    0.000    0.000 misc.py:91(__init__)
        4    0.000    0.000    0.000    0.000 interp_bsplines.py:44(__init__)
        7    0.000    0.000    0.000    0.000 om_warnings.py:182(issue_warning)
        1    0.000    0.000    0.014    0.014 radau_pseudospectral.py:93(configure_controls)
       32    0.000    0.000    0.000    0.000 pathlib.py:757(joinpath)
        1    0.000    0.000    0.000    0.000 inputs_report.py:1(<module>)
        8    0.000    0.000    0.000    0.000 units.py:142(__mul__)
        6    0.000    0.000    0.000    0.000 _coo.py:521(sum_duplicates)
        1    0.000    0.000    0.000    0.000 structural_cg.py:58(compute)
        1    0.000    0.000    0.000    0.000 pseudospectral_base.py:474(setup_timeseries_outputs)
       21    0.000    0.000    0.000    0.000 vector.py:284(_abs_item_iter)
       47    0.000    0.000    0.000    0.000 <frozen posixpath>:41(_get_sep)
        3    0.000    0.000    0.000    0.000 warnings.py:20(_showwarnmsg_impl)
       12    0.000    0.000    0.000    0.000 arrayprint.py:989(<genexpr>)
       13    0.000    0.000    0.000    0.000 <frozen importlib._bootstrap>:198(cb)
        1    0.000    0.000    0.000    0.000 geometry_mesh_transformations.py:375(setup)
       12    0.000    0.000    0.000    0.000 {method 'findall' of 're.Pattern' objects}
     13/9    0.000    0.000    0.002    0.000 <frozen importlib._bootstrap>:1194(_gcd_import)
       11    0.000    0.000    0.000    0.000 <frozen importlib._bootstrap_external>:675(_validate_timestamp_pyc)
        1    0.000    0.000    0.000    0.000 aerostruct_groups.py:24(setup)
        1    0.000    0.000    0.029    0.029 radau_pseudospectral.py:46(configure_time)
        6    0.000    0.000    0.001    0.000 __init__.py:914(<genexpr>)
        2    0.000    0.000    0.011    0.005 pseudospectral_base.py:506(_get_objective_src)
        1    0.000    0.000    0.000    0.000 dynamics.py:200(compute_partials)
        1    0.000    0.000    0.001    0.001 aero_oas.py:247(setup)
        1    0.000    0.000    0.001    0.001 pseudospectral_base.py:60(configure_time)
       16    0.000    0.000    0.000    0.000 shape_base.py:600(<listcomp>)
       75    0.000    0.000    0.000    0.000 {built-in method _imp.acquire_lock}
       49    0.000    0.000    0.000    0.000 <frozen importlib._bootstrap>:1028(__enter__)
       20    0.000    0.000    0.000    0.000 misc.py:14(get_rate_units)
        1    0.000    0.000    0.000    0.000 assemble_k_group.py:15(setup)
        4    0.000    0.000    0.000    0.000 arrayprint.py:780(_formatArray)
        1    0.000    0.000    0.000    0.000 load_factor = cos(theta):1(<module>)
       12    0.000    0.000    0.001    0.000 <frozen importlib._bootstrap_external>:1496(find_spec)
        1    0.000    0.000    0.000    0.000 introspection.py:718(<listcomp>)
        5    0.000    0.000    0.001    0.000 _functools.py:75(wrapper)
        6    0.000    0.000    0.000    0.000 _special_matrices.py:542(<listcomp>)
        6    0.000    0.000    0.000    0.000 _polyint.py:89(_prepare_x)
      135    0.000    0.000    0.000    0.000 indexer.py:189(shaped_instance)
        4    0.000    0.000    0.000    0.000 trajectory.py:196(add_parameter)
        1    0.000    0.000    0.000    0.000 inspect.py:3022(from_callable)
        1    0.000    0.000    0.000    0.000 group.py:1029(_check_alias_overlaps)
        1    0.000    0.000    0.000    0.000 grid_data.py:404(is_aligned_with)
        1    0.000    0.000    0.000    0.000 report.py:1(<module>)
        4    0.000    0.000    0.000    0.000 phase.py:959(set_parameter_options)
        6    0.000    0.000    0.000    0.000 _polyint.py:134(_set_dtype)
        1    0.000    0.000    0.000    0.000 compute_nodes.py:62(compute)
        6    0.000    0.000    0.000    0.000 exec_comp.py:344(<listcomp>)
        1    0.000    0.000    0.000    0.000 continuity_comp.py:285(compute)
        1    0.000    0.000    0.000    0.000 aero_oas.py:274(compute_partials)
       11    0.000    0.000    0.000    0.000 <frozen importlib._bootstrap_external>:599(_check_name_wrapper)
        1    0.000    0.000    0.000    0.000 zipfile.py:1242(__init__)
        5    0.000    0.000    0.000    0.000 v_vector = v:1(<module>)
       22    0.000    0.000    0.000    0.000 <frozen importlib._bootstrap>:392(cached)
        1    0.000    0.000    0.000    0.000 options.py:500(__init__)
       20    0.000    0.000    0.000    0.000 options.py:215(check_valid_shape)
        4    0.000    0.000    0.000    0.000 arrayprint.py:1595(_array_str_implementation)
        1    0.000    0.000    0.000    0.000 spatial_beam_setup.py:16(setup)
        1    0.000    0.000    0.000    0.000 transcription_base.py:67(setup_time)
        2    0.000    0.000    0.000    0.000 coloring.py:1718(_get_desvar_info)
        2    0.000    0.000    0.000    0.000 function_base.py:1461(interp)
        1    0.000    0.000    0.000    0.000 inspect.py:2682(__init__)
       13    0.000    0.000    0.000    0.000 <frozen importlib._bootstrap>:71(__init__)
        3    0.000    0.000    0.000    0.000 warnings.py:117(_formatwarnmsg)
       44    0.000    0.000    0.000    0.000 <frozen importlib._bootstrap_external>:134(<genexpr>)
        1    0.000    0.000    0.000    0.000 aero_oas.py:222(setup)
        1    0.000    0.000    0.000    0.000 transcription_base.py:553(configure_path_constraints)
       10    0.000    0.000    0.004    0.000 file_utils.py:270(_iter_entry_points)
        6    0.000    0.000    0.000    0.000 {method 'clip' of 'numpy.ndarray' objects}
        4    0.000    0.000    0.000    0.000 arrayprint.py:411(<lambda>)
        9    0.000    0.000    0.002    0.000 __init__.py:108(import_module)
        1    0.000    0.000    0.000    0.000 pseudospectral_base.py:72(setup_states)
        1    0.000    0.000    0.000    0.000 graph.py:332(__init__)
       62    0.000    0.000    0.000    0.000 {method 'replace' of 'str' objects}
        4    0.000    0.000    0.000    0.000 <frozen zipimport>:64(__init__)
        4    0.000    0.000    0.000    0.000 {built-in method builtins.sum}
        4    0.000    0.000    0.000    0.000 spline_comp.py:30(__init__)
        4    0.000    0.000    0.000    0.000 phase.py:215(set_state_options)
        2    0.000    0.000    0.000    0.000 units.py:329(__mul__)
        1    0.000    0.000    0.000    0.000 length.py:33(compute)
       17    0.000    0.000    0.000    0.000 {built-in method _codecs.utf_8_decode}
        4    0.000    0.000    0.000    0.000 <frozen importlib._bootstrap_external>:1655(_fill_cache)
       23    0.000    0.000    0.000    0.000 <frozen importlib._bootstrap_external>:159(_path_isfile)
        4    0.000    0.000    0.000    0.000 pseudospectral_base.py:298(_configure_solve_segments)
        3    0.000    0.000    0.000    0.000 decorators.py:831(_name)
        8    0.000    0.000    0.000    0.000 arrayprint.py:753(_extendLine_pretty)
        1    0.000    0.000    0.000    0.000 pyoptsparse_driver.py:193(__init__)
        5    0.000    0.000    0.000    0.000 {built-in method builtins.locals}
        6    0.000    0.000    0.000    0.000 _polyint.py:51(__init__)
        2    0.000    0.000    0.000    0.000 units.py:388(__rdiv__)
        1    0.000    0.000    0.000    0.000 control_group.py:317(setup)
        1    0.000    0.000    0.004    0.004 __init__.py:473(load)
       84    0.000    0.000    0.000    0.000 numeric.py:199(_ones_like_dispatcher)
        1    0.000    0.000    0.000    0.000 linecache.py:80(updatecache)
        1    0.000    0.000    0.000    0.000 tokenize.py:299(detect_encoding)
        1    0.000    0.000    0.000    0.000 graphviews.py:41(generic_graph_view)
        1    0.000    0.000    0.000    0.000 linecache.py:36(getlines)
       12    0.000    0.000    0.000    0.000 __init__.py:208(findall)
        5    0.000    0.000    0.001    0.000 __init__.py:812(search)
        5    0.000    0.000    0.000    0.000 hooks.py:33(_setup_hooks)
        5    0.000    0.000    0.000    0.000 functools.py:518(decorating_function)
       12    0.000    0.000    0.000    0.000 <frozen codecs>:309(__init__)
        5    0.000    0.000    0.000    0.000 decorators.py:1171(_indent)
        1    0.000    0.000    0.004    0.004 __init__.py:1020(entry_points)
        4    0.000    0.000    0.000    0.000 radau_pseudospectral.py:232(_get_rate_source_path)
        6    0.000    0.000    0.000    0.000 _interpolate.py:745(_evaluate)
        2    0.000    0.000    0.000    0.000 coloring.py:1747(_get_response_info)
        6    0.000    0.000    0.000    0.000 {method 'take' of 'numpy.ndarray' objects}
       75    0.000    0.000    0.000    0.000 {built-in method _imp.release_lock}
        1    0.000    0.000    0.000    0.000 geometry_mesh.py:1(<module>)
        2    0.000    0.000    0.000    0.000 om_warnings.py:248(_warn_simple_format)
      8/5    0.000    0.000    0.000    0.000 decorators.py:1141(_flatten)
       11    0.000    0.000    0.000    0.000 <frozen importlib._bootstrap>:48(_new_module)
        6    0.000    0.000    0.000    0.000 _interpolate.py:635(fill_value)
        1    0.000    0.000    0.000    0.000 continuity_comp.py:398(_configure_state_continuity)
        2    0.000    0.000    0.000    0.000 problem.py:384(_update_reports)
        2    0.000    0.000    0.000    0.000 driver.py:287(<listcomp>)
        1    0.000    0.000    0.000    0.000 aero_oas.py:234(compute_partials)
       32    0.000    0.000    0.000    0.000 pathlib.py:94(join_parsed_parts)
        1    0.000    0.000    0.000    0.000 inspect.py:2968(__init__)
       11    0.000    0.000    0.000    0.000 <frozen importlib._bootstrap_external>:1146(path_stats)
        2    0.000    0.000    0.000    0.000 driver.py:1185(_setup_simul_coloring)
       18    0.000    0.000    0.000    0.000 {function NumberDict.__getitem__ at 0x7f0899c49580}
        4    0.000    0.000    0.000    0.000 <frozen importlib._bootstrap_external>:1696(path_hook_for_FileFinder)
        1    0.000    0.000    0.000    0.000 warnings.py:35(_formatwarnmsg_impl)
       12    0.000    0.000    0.000    0.000 __init__.py:89(find_spec)
        6    0.000    0.000    0.000    0.000 indexer.py:960(copy)
        1    0.000    0.000    0.000    0.000 zipfile.py:2251(make)
        9    0.000    0.000    0.000    0.000 {built-in method _functools.reduce}
        1    0.000    0.000    0.000    0.000 phase.py:1940(_check_parameter_options)
        2    0.000    0.000    0.000    0.000 _compiler.py:384(_mk_bitmap)
       12    0.000    0.000    0.000    0.000 <frozen importlib._bootstrap>:357(__init__)
        1    0.000    0.000    0.011    0.011 transcription_base.py:25(__init__)
       13    0.000    0.000    0.000    0.000 <frozen importlib._bootstrap>:173(__exit__)
        1    0.000    0.000    0.000    0.000 radau_pseudospectral.py:189(setup_defects)
        8    0.000    0.000    0.000    0.000 units.py:427(<listcomp>)
        5    0.000    0.000    0.000    0.000 __init__.py:788(__new__)
        1    0.000    0.000    0.000    0.000 pseudospectral_base.py:39(setup_time)
        2    0.000    0.000    0.000    0.000 driver.py:292(<listcomp>)
        3    0.000    0.000    0.000    0.000 exec_comp.py:246(initialize)
        1    0.000    0.000    0.000    0.000 trajectory.py:54(__init__)
        6    0.000    0.000    0.000    0.000 exec_comp.py:557(<listcomp>)
        1    0.000    0.000    0.000    0.000 state_interp_comp.py:281(compute)
       42    0.000    0.000    0.000    0.000 contextlib.py:425(__init__)
        3    0.000    0.000    0.000    0.000 warnings.py:403(__init__)
       12    0.000    0.000    0.000    0.000 <frozen importlib._bootstrap>:922(find_spec)
        1    0.000    0.000    0.000    0.000 decorators.py:765(func)
        1    0.000    0.000    0.000    0.000 decorators.py:697(_lazy_compile)
        2    0.000    0.000    0.000    0.000 general_utils.py:1039(<dictcomp>)
       12    0.000    0.000    0.000    0.000 {built-in method _imp.find_frozen}
        1    0.000    0.000    0.000    0.000 dynamics.py:184(setup)
       33    0.000    0.000    0.000    0.000 {built-in method from_bytes}
        5    0.000    0.000    0.001    0.000 __init__.py:821(lookup)
        4    0.000    0.000    0.000    0.000 options.py:323(__init__)
       18    0.000    0.000    0.000    0.000 {method 'difference' of 'set' objects}
        1    0.000    0.000    0.000    0.000 options.py:639(__init__)
        1    0.000    0.000    0.001    0.001 continuity_comp.py:233(configure_io)
        1    0.000    0.000    0.000    0.000 __init__.py:567(discover)
        2    0.000    0.000    0.000    0.000 {built-in method numpy.core._multiarray_umath.interp}
        8    0.000    0.000    0.000    0.000 arrayprint.py:739(_extendLine)
      2/1    0.000    0.000    6.867    6.867 parallel_group.py:23(_configure)
        8    0.000    0.000    0.000    0.000 {built-in method time.time}
       11    0.000    0.000    0.000    0.000 {built-in method _imp._fix_co_filename}
        6    0.000    0.000    0.000    0.000 fromnumeric.py:1025(argsort)
        1    0.000    0.000    0.000    0.000 geometry_mesh_transformations.py:400(compute)
        3    0.000    0.000    0.000    0.000 warnings.py:96(_showwarnmsg)
       66    0.000    0.000    0.000    0.000 {method 'reverse' of 'list' objects}
        4    0.000    0.000    0.000    0.000 trajectory.py:94(set_parameter_options)
        1    0.000    0.000    0.000    0.000 digraph.py:1304(reverse)
        1    0.000    0.000    0.000    0.000 geometry_mesh_transformations.py:1(<module>)
        1    0.000    0.000    0.000    0.000 geometry_mesh_transformations.py:607(compute)
       13    0.000    0.000    0.000    0.000 <frozen importlib._bootstrap>:1103(_sanity_check)
        1    0.000    0.000    0.000    0.000 pathlib.py:657(stem)
        2    0.000    0.000    0.000    0.000 _compiler.py:386(<listcomp>)
        2    0.000    0.000    0.040    0.020 recording_manager.py:176(record_viewer_data)
        1    0.000    0.000    0.000    0.000 problem.py:107(_default_prob_name)
        4    0.000    0.000    0.000    0.000 _compiler.py:214(_compile_charset)
        1    0.000    0.000    0.000    0.000 indepvarcomp.py:229(__init__)
        1    0.000    0.000    0.000    0.000 <frozen posixpath>:412(realpath)
        2    0.000    0.000    0.000    0.000 phase.py:527(set_control_options)
       12    0.000    0.000    0.000    0.000 arraysetops.py:630(<genexpr>)
        1    0.000    0.000    0.000    0.000 local_stiff_permuted.py:55(compute)
       31    0.000    0.000    0.000    0.000 __init__.py:923(__init__)
       12    0.000    0.000    0.000    0.000 indexer.py:1009(flat)
        3    0.000    0.000    0.000    0.000 reports_system.py:283(activate_reports)
        6    0.000    0.000    0.000    0.000 fromnumeric.py:1332(searchsorted)
        1    0.000    0.000    0.000    0.000 geometry_mesh_transformations.py:800(compute)
        4    0.000    0.000    0.000    0.000 {built-in method scipy.sparse._sparsetools.coo_todense}
        3    0.000    0.000    0.000    0.000 phase.py:2509(_indices_in_constraints)
        6    0.000    0.000    0.000    0.000 fromnumeric.py:95(take)
        2    0.000    0.000    0.000    0.000 units.py:121(__rsub__)
        4    0.000    0.000    0.000    0.000 _parser.py:444(_uniq)
       17    0.000    0.000    0.000    0.000 options_dictionary.py:555(items)
       16    0.000    0.000    0.000    0.000 {method 'find' of 'bytearray' objects}
        1    0.000    0.000    0.000    0.000 transcription_base.py:490(<dictcomp>)
        1    0.000    0.000    0.000    0.000 transcription_base.py:247(setup_parameters)
        1    0.000    0.000    0.000    0.000 trajectory.py:255(_setup_parameters)
        2    0.000    0.000    0.000    0.000 units.py:79(__add__)
        2    0.000    0.000    0.002    0.001 coloring.py:930(get_subjac_sparsity)
       24    0.000    0.000    0.000    0.000 {method 'pop' of 'dict' objects}
       38    0.000    0.000    0.000    0.000 fromnumeric.py:1877(_nonzero_dispatcher)
        1    0.000    0.000    0.000    0.000 <frozen importlib._bootstrap_external>:1536(find_distributions)
        1    0.000    0.000    0.000    0.000 system.py:4659(_clear_iprint)
       15    0.000    0.000    0.000    0.000 <frozen importlib._bootstrap_external>:180(_path_isabs)
       62    0.000    0.000    0.000    0.000 {built-in method io.text_encoding}
       31    0.000    0.000    0.000    0.000 {function FreezableDefaultDict.__missing__ at 0x7f08a023cb80}
       33    0.000    0.000    0.000    0.000 {method 'lstrip' of 'str' objects}
       10    0.000    0.000    0.000    0.000 _collections.py:23(freeze)
        1    0.000    0.000    0.027    0.027 radau_pseudospectral.py:116(configure_polynomial_controls)
        1    0.000    0.000    0.000    0.000 state_interp_comp.py:301(compute_partials)
        2    0.000    0.000    0.000    0.000 indexing.py:41(get_constraint_flat_idxs)
        1    0.000    0.000    0.000    0.000 inspect.py:3276(signature)
        2    0.000    0.000    0.000    0.000 exec_comp.py:813(_linearize)
        5    0.000    0.000    0.000    0.000 graph.py:59(__set__)
        6    0.000    0.000    0.000    0.000 exec_comp.py:567(<listcomp>)
        1    0.000    0.000    0.000    0.000 trajectory.py:350(setup)
        1    0.000    0.000    0.000    0.000 radau_pseudospectral.py:147(setup_ode)
       10    0.000    0.000    0.000    0.000 group.py:1817(<dictcomp>)
        2    0.000    0.000    0.000    0.000 general_utils.py:1025(_src_or_alias_dict)
       26    0.000    0.000    0.000    0.000 {method '__exit__' of '_thread.lock' objects}
       30    0.000    0.000    0.000    0.000 {built-in method _thread.get_ident}
        6    0.000    0.000    0.000    0.000 _polyint.py:95(_finish_y)
        1    0.000    0.000    0.000    0.000 pathlib.py:981(resolve)
        6    0.000    0.000    0.000    0.000 introspection.py:1139(<listcomp>)
       10    0.000    0.000    0.000    0.000 reports_system.py:58(register_hook_args)
        6    0.000    0.000    0.000    0.000 indexing.py:35(<listcomp>)
       12    0.000    0.000    0.000    0.000 _interpolate.py:379(_do_extrapolate)
        4    0.000    0.000    0.000    0.000 arrayprint.py:72(<dictcomp>)
        8    0.000    0.000    0.000    0.000 type_check.py:166(imag)
       24    0.000    0.000    0.000    0.000 problem.py:377(driver)
        1    0.000    0.000    0.000    0.000 graph.py:732(nodes)
       26    0.000    0.000    0.000    0.000 {built-in method _thread.allocate_lock}
        1    0.000    0.000    0.000    0.000 local_stiff_transformed.py:28(compute)
        2    0.000    0.000    0.000    0.000 coloring.py:1751(<listcomp>)
        1    0.000    0.000    0.000    0.000 problem.py:90(_get_top_script)
        1    0.000    0.000    0.000    0.000 {method 'readline' of '_io.BufferedReader' objects}
       32    0.000    0.000    0.000    0.000 <frozen importlib._bootstrap_external>:1565(<genexpr>)
        1    0.000    0.000    0.000    0.000 __init__.py:480(_all)
       24    0.000    0.000    0.000    0.000 <frozen _collections_abc>:315(__subclasshook__)
       42    0.000    0.000    0.000    0.000 contextlib.py:428(__enter__)
       22    0.000    0.000    0.000    0.000 driver.py:900(<genexpr>)
       36    0.000    0.000    0.000    0.000 multiarray.py:669(result_type)
        2    0.000    0.000    0.000    0.000 __init__.py:501(select)
       27    0.000    0.000    0.000    0.000 function_base.py:19(_linspace_dispatcher)
        3    0.000    0.000    0.000    0.000 radau_pseudospectral.py:509(<listcomp>)
        1    0.000    0.000    0.000    0.000 graphviews.py:173(reverse_view)
        1    0.000    0.000    0.000    0.000 continuity_comp.py:246(_compute_state_continuity)
        2    0.000    0.000    0.000    0.000 reports_system.py:197(register_report_hook)
       20    0.000    0.000    0.000    0.000 general_utils.py:994(_src_or_alias_name)
        1    0.000    0.000    0.000    0.000 phase.py:1499(add_objective)
        1    0.000    0.000    0.000    0.000 reports_system.py:570(clear_reports)
        1    0.000    0.000    0.000    0.000 pseudospectral_base.py:246(setup_ode)
        5    0.000    0.000    0.000    0.000 m_vector = m:1(<module>)
        1    0.000    0.000    0.000    0.000 pyoptsparse_driver.py:252(_declare_options)
        2    0.000    0.000    0.000    0.000 indexer.py:755(copy)
        5    0.000    0.000    0.000    0.000 alpha_vector = alpha:1(<module>)
       36    0.000    0.000    0.000    0.000 indexer.py:1477(__getitem__)
        1    0.000    0.000    0.000    0.000 zipfile.py:2370(__init__)
        1    0.000    0.000    0.011    0.011 radau_pseudospectral.py:32(__init__)
        2    0.000    0.000    0.000    0.000 parameter_comp.py:28(__init__)
        9    0.000    0.000    0.000    0.000 reports_system.py:50(__init__)
        1    0.000    0.000    0.000    0.000 problem.py:2311(get_reports_dir)
        1    0.000    0.000    0.000    0.000 __init__.py:910(_search_paths)
       11    0.000    0.000    0.000    0.000 <frozen importlib._bootstrap_external>:1097(__init__)
        8    0.000    0.000    0.000    0.000 indexer.py:887(indexed_src_shape)
        2    0.000    0.000    0.000    0.000 decorators.py:1035(<genexpr>)
       16    0.000    0.000    0.000    0.000 driver.py:904(<genexpr>)
        2    0.000    0.000    0.000    0.000 exec_comp.py:646(_get_coloring)
        1    0.000    0.000    0.000    0.000 function.py:159(freeze)
        4    0.000    0.000    0.000    0.000 interp_bsplines.py:58(initialize)
        2    0.000    0.000    0.000    0.000 digraph.py:364(adj)
        6    0.000    0.000    0.000    0.000 multiarray.py:421(lexsort)
        4    0.000    0.000    0.000    0.000 system.py:5600(convert2units)
        1    0.000    0.000    0.000    0.000 timeseries_output_comp.py:23(__init__)
        5    0.000    0.000    0.000    0.000 rho_vector = rho:1(<module>)
        1    0.000    0.000    0.000    0.000 linecache.py:26(getline)
        1    0.000    0.000    0.000    0.000 __init__.py:897(find_distributions)
        1    0.000    0.000    0.000    0.000 geometry_mesh_transformations.py:40(setup)
        2    0.000    0.000    0.000    0.000 units.py:350(<listcomp>)
        6    0.000    0.000    0.000    0.000 core.py:6480(isMaskedArray)
        1    0.000    0.000    0.000    0.000 pseudospectral_base.py:284(setup_defects)
        5    0.000    0.000    0.000    0.000 digraph.py:37(__set__)
        1    0.000    0.000    0.000    0.000 n2_viewer.py:679(_n2_report_register)
       30    0.000    0.000    0.000    0.000 {method 'copy' of 'list' objects}
        1    0.000    0.000    0.000    0.000 total_jac.py:454(_compute_jac_scatters)
        1    0.000    0.000    0.000    0.000 __init__.py:594(_discover_resolvers)
       13    0.000    0.000    0.000    0.000 <frozen importlib._bootstrap>:165(__init__)
        1    0.000    0.000    0.000    0.000 spatial_beam_setup.py:13(initialize)
        1    0.000    0.000    0.000    0.000 options.py:611(__init__)
        1    0.000    0.000    0.000    0.000 options.py:584(__init__)
        6    0.000    0.000    0.000    0.000 phase.py:383(check_parameter)
        1    0.000    0.000    0.000    0.000 <class 'networkx.utils.decorators.argmap'> compilation 4:1(argmap_reverse_view_1)
        5    0.000    0.000    0.000    0.000 <frozen _collections_abc>:262(__subclasshook__)
       12    0.000    0.000    0.000    0.000 <frozen codecs>:260(__init__)
        1    0.000    0.000    0.000    0.000 phase.py:1850(check_time_options)
        1    0.000    0.000    0.000    0.000 problem.py:392(driver)
        6    0.000    0.000    0.000    0.000 exec_comp.py:573(<listcomp>)
       10    0.000    0.000    0.000    0.000 __init__.py:892(__bool__)
        1    0.000    0.000    0.000    0.000 time_comp.py:21(initialize)
        1    0.000    0.000    0.000    0.000 __init__.py:984(distributions)
        1    0.000    0.000    0.000    0.000 __init__.py:805(zip_children)
        1    0.000    0.000    0.000    0.000 continuity_comp.py:263(<listcomp>)
        1    0.000    0.000    0.000    0.000 inspect.py:167(get_annotations)
        1    0.000    0.000    0.000    0.000 pseudospectral_timeseries_output_comp.py:24(__init__)
        2    0.000    0.000    0.000    0.000 parameter_comp.py:157(compute)
        1    0.000    0.000    0.000    0.000 geometry_mesh_transformations.py:805(Rotate)
        7    0.000    0.000    0.000    0.000 system.py:5936(_get_saved_errors)
        3    0.000    0.000    0.000    0.000 utils.py:16(initialize)
        3    0.000    0.000    0.000    0.000 configinfo.py:69(_prom_added)
        4    0.000    0.000    0.000    0.000 decorators.py:808(_count)
        8    0.000    0.000    0.000    0.000 {built-in method builtins.pow}
        1    0.000    0.000    0.000    0.000 geometry_mesh_transformations.py:116(ScaleX)
        2    0.000    0.000    0.000    0.000 __init__.py:581(<genexpr>)
       11    0.000    0.000    0.000    0.000 {built-in method builtins.id}
        1    0.000    0.000    0.000    0.000 timeseries_group.py:28(setup)
        1    0.000    0.000    0.000    0.000 decorators.py:990(get_name)
        2    0.000    0.000    0.000    0.000 driver.py:206(msginfo)
        6    0.000    0.000    0.000    0.000 __init__.py:597(<genexpr>)
       12    0.000    0.000    0.000    0.000 arrayprint.py:993(<genexpr>)
        1    0.000    0.000    0.000    0.000 control_group.py:51(initialize)
        4    0.000    0.000    0.000    0.000 radau_pseudospectral.py:482(<listcomp>)
        2    0.000    0.000    0.000    0.000 utils.py:133(initialize)
        1    0.000    0.000    0.000    0.000 zipfile.py:1868(__del__)
        3    0.000    0.000    0.000    0.000 radau_pseudospectral.py:511(<listcomp>)
        2    0.000    0.000    0.000    0.000 problem.py:450(_recording_iter)
        1    0.000    0.000    0.000    0.000 utils.py:594(get_default_geo_dict)
       16    0.000    0.000    0.000    0.000 {method 'remove' of 'set' objects}
        2    0.000    0.000    0.000    0.000 units.py:404(<listcomp>)
        2    0.000    0.000    0.000    0.000 coloring.py:359(total_solves)
        4    0.000    0.000    0.000    0.000 {built-in method fromkeys}
        1    0.000    0.000    0.000    0.000 phase.py:1565(set_time_options)
       12    0.000    0.000    0.000    0.000 <frozen importlib._bootstrap>:748(find_spec)
        4    0.000    0.000    0.000    0.000 <frozen importlib._bootstrap_external>:164(_path_isdir)
        1    0.000    0.000    0.000    0.000 {built-in method posix.getcwd}
        1    0.000    0.000    0.000    0.000 time_comp.py:17(__init__)
       16    0.000    0.000    0.000    0.000 shape_base.py:508(_expand_dims_dispatcher)
        1    0.000    0.000    0.000    0.000 tokenize.py:329(find_cookie)
        1    0.000    0.000    0.000    0.000 state_interp_comp.py:35(initialize)
        2    0.000    0.000    0.000    0.000 parallel_group.py:16(__init__)
        2    0.000    0.000    0.000    0.000 blas.py:308(<listcomp>)
        4    0.000    0.000    0.000    0.000 interp.py:201(<listcomp>)
        1    0.000    0.000    0.000    0.000 control_group.py:71(setup)
        1    0.000    0.000    0.000    0.000 group.py:1083(<dictcomp>)
       14    0.000    0.000    0.000    0.000 {built-in method from_iterable}
        2    0.000    0.000    0.000    0.000 indexing.py:67(get_desvar_indices)
        1    0.000    0.000    0.000    0.000 opt_report.py:99(_optimizer_report_register)
        4    0.000    0.000    0.000    0.000 spline_comp.py:66(add_spline)
        1    0.000    0.000    0.000    0.000 continuity_comp.py:312(<listcomp>)
        1    0.000    0.000    0.000    0.000 __init__.py:387(<setcomp>)
        1    0.000    0.000    0.000    0.000 _parser.py:82(opengroup)
        3    0.000    0.000    0.000    0.000 _ufunc_config.py:426(__init__)
        1    0.000    0.000    0.000    0.000 control_group.py:305(initialize)
        1    0.000    0.000    0.000    0.000 system.py:3295(add_objective)
        2    0.000    0.000    0.000    0.000 inspect.py:3017(<genexpr>)
        1    0.000    0.000    0.000    0.000 <frozen posixpath>:397(abspath)
        1    0.000    0.000    0.000    0.000 geometry_mesh_transformations.py:134(initialize)
        1    0.000    0.000    0.000    0.000 continuity_comp.py:38(_configure_state_continuity)
        1    0.000    0.000    0.000    0.000 group.py:4223(<dictcomp>)
       12    0.000    0.000    0.000    0.000 arrayprint.py:994(<genexpr>)
        3    0.000    0.000    0.000    0.000 group.py:2873(<listcomp>)
        1    0.000    0.000    0.000    0.000 contextlib.py:257(contextmanager)
        1    0.000    0.000    0.000    0.000 continuity_comp.py:18(__init__)
        1    0.000    0.000    0.000    0.000 collocation_comp.py:24(__init__)
        1    0.000    0.000    0.000    0.000 pseudospectral_base.py:23(initialize)
        3    0.000    0.000    0.000    0.000 reports_system.py:295(<listcomp>)
        1    0.000    0.000    0.000    0.000 state_interp_comp.py:31(__init__)
        1    0.000    0.000    0.000    0.000 options.py:753(__init__)
        8    0.000    0.000    0.000    0.000 inspect.py:729(getmro)
        9    0.000    0.000    0.000    0.000 phase.py:1541(<genexpr>)
        1    0.000    0.000    0.000    0.000 control_group.py:47(__init__)
        1    0.000    0.000    0.000    0.000 <frozen io>:60(__getattr__)
        1    0.000    0.000    0.000    0.000 phase.py:1895(_check_control_options)
        1    0.000    0.000    0.000    0.000 continuity_comp.py:22(initialize)
        1    0.000    0.000    0.000    0.000 mpi.py:69(check_mpi_env)
        3    0.000    0.000    0.000    0.000 introspection.py:1154(<setcomp>)
        1    0.000    0.000    0.000    0.000 <frozen os>:1081(__subclasshook__)
        1    0.000    0.000    0.000    0.000 geometry_mesh_transformations.py:25(initialize)
        1    0.000    0.000    0.000    0.000 geometry_mesh_transformations.py:828(initialize)
        1    0.000    0.000    0.000    0.000 report.py:395(_linkage_report_register)
        3    0.000    0.000    0.000    0.000 <frozen _collections_abc>:283(__subclasshook__)
        3    0.000    0.000    0.000    0.000 exec_comp.py:1155(__init__)
        1    0.000    0.000    0.000    0.000 __init__.py:754(__init__)
        2    0.000    0.000    0.000    0.000 <frozen posixpath>:60(isabs)
        3    0.000    0.000    0.000    0.000 <frozen _collections_abc>:362(__subclasshook__)
        1    0.000    0.000    0.000    0.000 phase.py:1739(_check_ode)
        2    0.000    0.000    0.000    0.000 driver.py:260(_set_problem)
        1    0.000    0.000    0.000    0.000 pseudospectral_base.py:450(configure_solvers)
        1    0.000    0.000    0.000    0.000 timeseries_output_comp.py:47(initialize)
        1    0.000    0.000    0.000    0.000 phase.py:104(initialize)
        2    0.000    0.000    0.000    0.000 coloring.py:2381(_get_coloring_meta)
        1    0.000    0.000    0.000    0.000 indexer.py:403(flat)
        1    0.000    0.000    0.000    0.000 __init__.py:757(path)
        1    0.000    0.000    0.000    0.000 trajectory.py:71(add_phase)
        5    0.000    0.000    0.000    0.000 digraph.py:63(__set__)
       13    0.000    0.000    0.000    0.000 component.py:151(setup)
        8    0.000    0.000    0.000    0.000 type_check.py:162(_imag_dispatcher)
        1    0.000    0.000    0.000    0.000 collocation_comp.py:28(initialize)
        1    0.000    0.000    0.000    0.000 indepvarcomp.py:249(_set_vector_class)
        1    0.000    0.000    0.000    0.000 geometry_group.py:17(initialize)
        1    0.000    0.000    0.000    0.000 pseudospectral_timeseries_output_comp.py:30(_declare_options)
        1    0.000    0.000    0.000    0.000 aero_oas.py:37(initialize)
       15    0.000    0.000    0.000    0.000 <frozen importlib._bootstrap_external>:71(_relax_case)
        1    0.000    0.000    0.000    0.000 driver.py:1112(use_fixed_coloring)
        1    0.000    0.000    0.000    0.000 graph.py:846(order)
       11    0.000    0.000    0.000    0.000 <frozen importlib._bootstrap>:413(has_location)
        6    0.000    0.000    0.000    0.000 _interpolate.py:666(_check_and_update_bounds_error_for_extrapolation)
        1    0.000    0.000    0.000    0.000 reportviews.py:178(__init__)
        1    0.000    0.000    0.000    0.000 {built-in method builtins.__import__}
       11    0.000    0.000    0.000    0.000 <frozen importlib._bootstrap_external>:1122(get_filename)
        1    0.000    0.000    0.000    0.000 pseudospectral_base.py:101(<listcomp>)
        1    0.000    0.000    0.000    0.000 decorators.py:82(_not_implemented_for)
        1    0.000    0.000    0.000    0.000 tokenize.py:323(read_or_stop)
        7    0.000    0.000    0.000    0.000 function_base.py:5558(_append_dispatcher)
        1    0.000    0.000    0.000    0.000 geometry_mesh_transformations.py:425(initialize)
        1    0.000    0.000    0.000    0.000 grid_data.py:344(<dictcomp>)
        1    0.000    0.000    0.000    0.000 driver.py:201(_get_inst_id)
        1    0.000    0.000    0.000    0.000 <frozen posixpath>:389(normpath)
        1    0.000    0.000    0.000    0.000 aerostruct_groups.py:19(initialize)
        1    0.000    0.000    0.000    0.000 utils.py:51(initialize)
        7    0.000    0.000    0.000    0.000 total_jac.py:2008(_check_voi_meta)
        3    0.000    0.000    0.000    0.000 system.py:2691(_force_alloc_complex)
        2    0.000    0.000    0.000    0.000 inspect.py:378(isfunction)
        1    0.000    0.000    0.000    0.000 utils.py:92(initialize)
        2    0.000    0.000    0.000    0.000 {method 'translate' of 'bytearray' objects}
        1    0.000    0.000    0.000    0.000 timeseries_group.py:15(__init__)
        1    0.000    0.000    0.000    0.000 group.py:4224(<dictcomp>)
        3    0.000    0.000    0.000    0.000 exec_comp.py:1113(__init__)
        1    0.000    0.000    0.000    0.000 {method 'decode' of 'bytes' objects}
        1    0.000    0.000    0.000    0.000 solver.py:39(clear)
        1    0.000    0.000    0.000    0.000 {method 'values' of 'mappingproxy' objects}
       11    0.000    0.000    0.000    0.000 <frozen importlib._bootstrap_external>:931(create_module)
        1    0.000    0.000    0.000    0.000 <string>:1(<lambda>)
        1    0.000    0.000    0.000    0.000 control_group.py:329(<listcomp>)
        1    0.000    0.000    0.000    0.000 {method 'isidentifier' of 'str' objects}
        1    0.000    0.000    0.000    0.000 {built-in method posix._path_normpath}
        1    0.000    0.000    0.000    0.000 geometry_mesh_transformations.py:9(Taper)
        1    0.000    0.000    0.000    0.000 geometry_mesh_transformations.py:228(initialize)
        1    0.000    0.000    0.000    0.000 __init__.py:382(names)
        1    0.000    0.000    0.000    0.000 dynamics.py:179(initialize)
        3    0.000    0.000    0.000    0.000 {method '__exit__' of '_thread.RLock' objects}
        8    0.000    0.000    0.000    0.000 {built-in method _stat.S_ISLNK}
        1    0.000    0.000    0.000    0.000 timeseries_group.py:18(initialize)
        1    0.000    0.000    0.000    0.000 aero_oas.py:73(initialize)
        4    0.000    0.000    0.000    0.000 {method 'discard' of 'set' objects}
        1    0.000    0.000    0.000    0.000 geometry_mesh_transformations.py:631(initialize)
        9    0.000    0.000    0.000    0.000 phase.py:1243(<genexpr>)
        1    0.000    0.000    0.000    0.000 dynamics.py:28(initialize)
        1    0.000    0.000    0.000    0.000 problem.py:574(_check_collected_errors)
        2    0.000    0.000    0.000    0.000 mpi.py:250(multi_proc_exception_check)
        1    0.000    0.000    0.000    0.000 weight.py:26(initialize)
        1    0.000    0.000    0.000    0.000 driver.py:1071(declare_coloring)
        6    0.000    0.000    0.000    0.000 fromnumeric.py:91(_take_dispatcher)
        5    0.000    0.000    0.000    0.000 __init__.py:792(__init__)
        1    0.000    0.000    0.000    0.000 tube_group.py:10(initialize)
        6    0.000    0.000    0.000    0.000 fromnumeric.py:1328(_searchsorted_dispatcher)
        1    0.000    0.000    0.000    0.000 pathlib.py:622(name)
        1    0.000    0.000    0.000    0.000 configinfo.py:37(__init__)
        1    0.000    0.000    0.000    0.000 _parser.py:94(closegroup)
        1    0.000    0.000    0.000    0.000 transcription_base.py:447(configure_boundary_constraints)
        1    0.000    0.000    0.000    0.000 {method '__contains__' of 'frozenset' objects}
        1    0.000    0.000    0.000    0.000 geometry_mesh_transformations.py:575(initialize)
        1    0.000    0.000    0.000    0.000 {method 'startswith' of 'bytes' objects}
        6    0.000    0.000    0.000    0.000 fromnumeric.py:1021(_argsort_dispatcher)
        1    0.000    0.000    0.000    0.000 assemble_k_group.py:12(initialize)
        3    0.000    0.000    0.000    0.000 exec_comp.py:34(check_option)
        2    0.000    0.000    0.000    0.000 pseudospectral_base.py:620(_get_num_timeseries_nodes)
        1    0.000    0.000    0.000    0.000 transform.py:11(initialize)
        1    0.000    0.000    0.000    0.000 configinfo.py:40(_reset)
        1    0.000    0.000    0.000    0.000 length.py:9(initialize)
        1    0.000    0.000    0.000    0.000 recording_iteration_stack.py:26(__init__)
        6    0.000    0.000    0.000    0.000 index_tricks.py:30(_ix__dispatcher)
        1    0.000    0.000    0.000    0.000 debug.py:367(_summary_report_register)
        1    0.000    0.000    0.000    0.000 trajectory.py:64(initialize)
        1    0.000    0.000    0.000    0.000 check_config.py:728(_check_report_register)
        1    0.000    0.000    0.000    0.000 geometry_mesh_transformations.py:768(initialize)
        1    0.000    0.000    0.000    0.000 geometry_mesh_transformations.py:368(initialize)
        4    0.000    0.000    0.000    0.000 group.py:2868(<genexpr>)
        1    0.000    0.000    0.000    0.000 geometry_mesh.py:20(GeometryMesh)
        1    0.000    0.000    0.000    0.000 compute_nodes.py:25(initialize)
        1    0.000    0.000    0.000    0.000 {method 'tolist' of 'numpy.ndarray' objects}
        4    0.000    0.000    0.000    0.000 arraysetops.py:519(_in1d_dispatcher)
        4    0.000    0.000    0.000    0.000 arrayprint.py:898(_none_or_positive_arg)
        1    0.000    0.000    0.000    0.000 inputs_report.py:164(_inputs_report_register)
        1    0.000    0.000    0.000    0.000 geometry_mesh_transformations.py:405(Stretch)
        1    0.000    0.000    0.000    0.000 coloring.py:2029(_total_coloring_report_register)
        1    0.000    0.000    0.000    0.000 {built-in method _imp.is_builtin}
        1    0.000    0.000    0.000    0.000 geometry_mesh_transformations.py:209(Sweep)
        1    0.000    0.000    0.000    0.000 geometry_mesh.py:51(initialize)
        2    0.000    0.000    0.000    0.000 radau_pseudospectral.py:106(<listcomp>)
        1    0.000    0.000    0.000    0.000 local_stiff.py:33(initialize)
        1    0.000    0.000    0.000    0.000 local_stiff_permuted.py:28(initialize)
        1    0.000    0.000    0.000    0.000 scaling_report.py:591(_scaling_report_register)
        4    0.000    0.000    0.000    0.000 group.py:2866(<genexpr>)
        1    0.000    0.000    0.000    0.000 section_properties_tube.py:31(initialize)
        1    0.000    0.000    0.000    0.000 local_stiff_transformed.py:7(initialize)
        1    0.000    0.000    0.000    0.000 dynamics.py:79(initialize)
        1    0.000    0.000    0.000    0.000 geometry_mesh_transformations.py:612(Dihedral)
        1    0.000    0.000    0.000    0.000 viewconns.py:270(_connections_report_register)
        1    0.000    0.000    0.000    0.000 graph.py:37(__set__)
        1    0.000    0.000    0.000    0.000 zipfile.py:1872(close)
        1    0.000    0.000    0.000    0.000 <class 'networkx.utils.decorators.argmap'> compilation 4:1(<module>)
        1    0.000    0.000    0.000    0.000 aero_oas.py:219(initialize)
        1    0.000    0.000    0.000    0.000 structural_cg.py:25(initialize)
        1    0.000    0.000    0.000    0.000 geometry_mesh_transformations.py:350(ShearX)
        1    0.000    0.000    0.000    0.000 debug.py:19(_NoColor)
        1    0.000    0.000    0.000    0.000 solver.py:32(__init__)
        1    0.000    0.000    0.000    0.000 geometry_mesh_transformations.py:750(ShearZ)
        1    0.000    0.000    0.000    0.000 aero_oas.py:244(initialize)
        4    0.000    0.000    0.000    0.000 __init__.py:1(<module>)
        1    0.000    0.000    0.000    0.000 geometry_mesh_transformations.py:557(ShearY)
        1    0.000    0.000    0.000    0.000 total_jac.py:401(<dictcomp>)
        1    0.000    0.000    0.000    0.000 total_jac.py:308(<dictcomp>)
        1    0.000    0.000    0.000    0.000 system.py:2711(_relevant)
        1    0.000    0.000    0.000    0.000 __init__.py:870(__init__)
        1    0.000    0.000    0.000    0.000 radau_pseudospectral.py:186(<listcomp>)
        1    0.000    0.000    0.000    0.000 transcription_base.py:235(configure_polynomial_controls)
        1    0.000    0.000    0.000    0.000 zipfile.py:689(_check_compression)
        1    0.000    0.000    0.000    0.000 pathlib.py:1008(stat)
        4    0.000    0.000    0.000    0.000 inspect.py:2735(name)
        1    0.000    0.000    0.000    0.000 {method 'disable' of '_lsprof.Profiler' objects}
        4    0.000    0.000    0.000    0.000 interp_bsplines.py:65(check_config)
        2    0.000    0.000    0.000    0.000 {method 'index' of 'list' objects}
        3    0.000    0.000    0.000    0.000 indepvarcomp.py:188(_linearize)
        1    0.000    0.000    0.000    0.000 six.py:194(find_spec)
        1    0.000    0.000    0.000    0.000 {method 'seek' of '_io.BufferedReader' objects}
        2    0.000    0.000    0.000    0.000 function_base.py:1457(_interp_dispatcher)
        2    0.000    0.000    0.000    0.000 {built-in method builtins.callable}
        2    0.000    0.000    0.000    0.000 shape_base.py:1063(_kron_dispatcher)
        1    0.000    0.000    0.000    0.000 transcription_base.py:191(configure_controls)
        3    0.000    0.000    0.000    0.000 digraph.py:1221(is_directed)
        1    0.000    0.000    0.000    0.000 <string>:1(<module>)
        2    0.000    0.000    0.000    0.000 group.py:2870(<genexpr>)
        2    0.000    0.000    0.000    0.000 digraph.py:1217(is_multigraph)
        1    0.000    0.000    0.000    0.000 inspect.py:3030(parameters)
        1    0.000    0.000    0.000    0.000 total_jac.py:402(<dictcomp>)
        1    0.000    0.000    0.000    0.000 reports_system.py:488(get_reports_dir)
        1    0.000    0.000    0.000    0.000 pseudospectral_base.py:439(setup_solvers)
        1    0.000    0.000    0.000    0.000 driver.py:236(_declare_options)
        1    0.000    0.000    0.000    0.000 problem.py:419(_get_inst_id)
        1    0.000    0.000    0.000    0.000 phase.py:1255(<listcomp>)
        1    0.000    0.000    0.000    0.000 inspect.py:2747(kind)
        1    0.000    0.000    0.000    0.000 group.py:4227(<dictcomp>)
        1    0.000    0.000    0.000    0.000 reports_system.py:540(get_reports_to_activate)
        1    0.000    0.000    0.000    0.000 __init__.py:96(<lambda>)
        1    0.000    0.000    0.000    0.000 transcription_base.py:52(_declare_options)
        1    0.000    0.000    0.000    0.000 phase.py:1262(<listcomp>)
        1    0.000    0.000    0.000    0.000 driver.py:244(_setup_comm)
        1    0.000    0.000    0.000    0.000 _functools.py:83(<lambda>)


